# vtk DataFile Version 2.0
Exported by getfem++
ASCII
DATASET UNSTRUCTURED_GRID
POINTS 2046 float
 -15 -10 0 -14.0323 -9.09091 0 -15 -9.09091 0
 -14.0323 -9.09091 0 -15 -10 0 -14.0323 -10 0
 -13.0645 -10 0 -14.0323 -9.09091 0 -14.0323 -10 0
 -14.0323 -9.09091 0 -13.0645 -10 0 -13.0645 -9.09091 0
 -13.0645 -10 0 -12.0968 -9.09091 0 -13.0645 -9.09091 0
 -12.0968 -9.09091 0 -13.0645 -10 0 -12.0968 -10 0
 -11.129 -10 0 -12.0968 -9.09091 0 -12.0968 -10 0
 -12.0968 -9.09091 0 -11.129 -10 0 -11.129 -9.09091 0
 -11.129 -10 0 -10.1613 -9.09091 0 -11.129 -9.09091 0
 -10.1613 -9.09091 0 -11.129 -10 0 -10.1613 -10 0
 -9.19355 -10 0 -10.1613 -9.09091 0 -10.1613 -10 0
 -10.1613 -9.09091 0 -9.19355 -10 0 -9.19355 -9.09091 0
 -9.19355 -10 0 -8.22581 -9.09091 0 -9.19355 -9.09091 0
 -8.22581 -9.09091 0 -9.19355 -10 0 -8.22581 -10 0
 -7.25806 -10 0 -8.22581 -9.09091 0 -8.22581 -10 0
 -8.22581 -9.09091 0 -7.25806 -10 0 -7.25806 -9.09091 0
 -7.25806 -10 0 -6.29032 -9.09091 0 -7.25806 -9.09091 0
 -6.29032 -9.09091 0 -7.25806 -10 0 -6.29032 -10 0
 -5.32258 -10 0 -6.29032 -9.09091 0 -6.29032 -10 0
 -6.29032 -9.09091 0 -5.32258 -10 0 -5.32258 -9.09091 0
 -5.32258 -10 0 -4.35484 -9.09091 0 -5.32258 -9.09091 0
 -4.35484 -9.09091 0 -5.32258 -10 0 -4.35484 -10 0
 -3.3871 -10 0 -4.35484 -9.09091 0 -4.35484 -10 0
 -4.35484 -9.09091 0 -3.3871 -10 0 -3.3871 -9.09091 0
 -3.3871 -10 0 -2.41935 -9.09091 0 -3.3871 -9.09091 0
 -2.41935 -9.09091 0 -3.3871 -10 0 -2.41935 -10 0
 -1.45161 -10 0 -2.41935 -9.09091 0 -2.41935 -10 0
 -2.41935 -9.09091 0 -1.45161 -10 0 -1.45161 -9.09091 0
 -1.45161 -10 0 -0.483871 -9.09091 0 -1.45161 -9.09091 0
 -0.483871 -9.09091 0 -1.45161 -10 0 -0.483871 -10 0
 0.483871 -10 0 -0.483871 -9.09091 0 -0.483871 -10 0
 -0.483871 -9.09091 0 0.483871 -10 0 0.483871 -9.09091 0
 0.483871 -10 0 1.45161 -9.09091 0 0.483871 -9.09091 0
 1.45161 -9.09091 0 0.483871 -10 0 1.45161 -10 0
 2.41935 -10 0 1.45161 -9.09091 0 1.45161 -10 0
 1.45161 -9.09091 0 2.41935 -10 0 2.41935 -9.09091 0
 2.41935 -10 0 3.3871 -9.09091 0 2.41935 -9.09091 0
 3.3871 -9.09091 0 2.41935 -10 0 3.3871 -10 0
 4.35484 -10 0 3.3871 -9.09091 0 3.3871 -10 0
 3.3871 -9.09091 0 4.35484 -10 0 4.35484 -9.09091 0
 4.35484 -10 0 5.32258 -9.09091 0 4.35484 -9.09091 0
 5.32258 -9.09091 0 4.35484 -10 0 5.32258 -10 0
 6.29032 -10 0 5.32258 -9.09091 0 5.32258 -10 0
 5.32258 -9.09091 0 6.29032 -10 0 6.29032 -9.09091 0
 6.29032 -10 0 7.25806 -9.09091 0 6.29032 -9.09091 0
 7.25806 -9.09091 0 6.29032 -10 0 7.25806 -10 0
 8.22581 -10 0 7.25806 -9.09091 0 7.25806 -10 0
 7.25806 -9.09091 0 8.22581 -10 0 8.22581 -9.09091 0
 8.22581 -10 0 9.19355 -9.09091 0 8.22581 -9.09091 0
 9.19355 -9.09091 0 8.22581 -10 0 9.19355 -10 0
 10.1613 -10 0 9.19355 -9.09091 0 9.19355 -10 0
 9.19355 -9.09091 0 10.1613 -10 0 10.1613 -9.09091 0
 10.1613 -10 0 11.129 -9.09091 0 10.1613 -9.09091 0
 11.129 -9.09091 0 10.1613 -10 0 11.129 -10 0
 12.0968 -10 0 11.129 -9.09091 0 11.129 -10 0
 11.129 -9.09091 0 12.0968 -10 0 12.0968 -9.09091 0
 12.0968 -10 0 13.0645 -9.09091 0 12.0968 -9.09091 0
 13.0645 -9.09091 0 12.0968 -10 0 13.0645 -10 0
 14.0323 -10 0 13.0645 -9.09091 0 13.0645 -10 0
 13.0645 -9.09091 0 14.0323 -10 0 14.0323 -9.09091 0
 14.0323 -10 0 15 -9.09091 0 14.0323 -9.09091 0
 15 -9.09091 0 14.0323 -10 0 15 -10 0
 -14.0323 -9.09091 0 -15 -8.18182 0 -15 -9.09091 0
 -15 -8.18182 0 -14.0323 -9.09091 0 -14.0323 -8.18182 0
 -14.0323 -9.09091 0 -13.0645 -8.18182 0 -14.0323 -8.18182 0
 -13.0645 -8.18182 0 -14.0323 -9.09091 0 -13.0645 -9.09091 0
 -12.0968 -9.09091 0 -13.0645 -8.18182 0 -13.0645 -9.09091 0
 -13.0645 -8.18182 0 -12.0968 -9.09091 0 -12.0968 -8.18182 0
 -12.0968 -9.09091 0 -11.129 -8.18182 0 -12.0968 -8.18182 0
 -11.129 -8.18182 0 -12.0968 -9.09091 0 -11.129 -9.09091 0
 -10.1613 -9.09091 0 -11.129 -8.18182 0 -11.129 -9.09091 0
 -11.129 -8.18182 0 -10.1613 -9.09091 0 -10.1613 -8.18182 0
 -10.1613 -9.09091 0 -9.19355 -8.18182 0 -10.1613 -8.18182 0
 -9.19355 -8.18182 0 -10.1613 -9.09091 0 -9.19355 -9.09091 0
 -8.22581 -9.09091 0 -9.19355 -8.18182 0 -9.19355 -9.09091 0
 -9.19355 -8.18182 0 -8.22581 -9.09091 0 -8.22581 -8.18182 0
 -8.22581 -9.09091 0 -7.25806 -8.18182 0 -8.22581 -8.18182 0
 -7.25806 -8.18182 0 -8.22581 -9.09091 0 -7.25806 -9.09091 0
 -6.29032 -9.09091 0 -7.25806 -8.18182 0 -7.25806 -9.09091 0
 -7.25806 -8.18182 0 -6.29032 -9.09091 0 -6.29032 -8.18182 0
 -6.29032 -9.09091 0 -5.32258 -8.18182 0 -6.29032 -8.18182 0
 -5.32258 -8.18182 0 -6.29032 -9.09091 0 -5.32258 -9.09091 0
 -4.35484 -9.09091 0 -5.32258 -8.18182 0 -5.32258 -9.09091 0
 -5.32258 -8.18182 0 -4.35484 -9.09091 0 -4.35484 -8.18182 0
 -4.35484 -9.09091 0 -3.3871 -8.18182 0 -4.35484 -8.18182 0
 -3.3871 -8.18182 0 -4.35484 -9.09091 0 -3.3871 -9.09091 0
 -2.41935 -9.09091 0 -3.3871 -8.18182 0 -3.3871 -9.09091 0
 -3.3871 -8.18182 0 -2.41935 -9.09091 0 -2.41935 -8.18182 0
 -2.41935 -9.09091 0 -1.45161 -8.18182 0 -2.41935 -8.18182 0
 -1.45161 -8.18182 0 -2.41935 -9.09091 0 -1.45161 -9.09091 0
 -0.483871 -9.09091 0 -1.45161 -8.18182 0 -1.45161 -9.09091 0
 -1.45161 -8.18182 0 -0.483871 -9.09091 0 -0.483871 -8.18182 0
 -0.483871 -9.09091 0 0.483871 -8.18182 0 -0.483871 -8.18182 0
 0.483871 -8.18182 0 -0.483871 -9.09091 0 0.483871 -9.09091 0
 1.45161 -9.09091 0 0.483871 -8.18182 0 0.483871 -9.09091 0
 0.483871 -8.18182 0 1.45161 -9.09091 0 1.45161 -8.18182 0
 1.45161 -9.09091 0 2.41935 -8.18182 0 1.45161 -8.18182 0
 2.41935 -8.18182 0 1.45161 -9.09091 0 2.41935 -9.09091 0
 3.3871 -9.09091 0 2.41935 -8.18182 0 2.41935 -9.09091 0
 2.41935 -8.18182 0 3.3871 -9.09091 0 3.3871 -8.18182 0
 3.3871 -9.09091 0 4.35484 -8.18182 0 3.3871 -8.18182 0
 4.35484 -8.18182 0 3.3871 -9.09091 0 4.35484 -9.09091 0
 5.32258 -9.09091 0 4.35484 -8.18182 0 4.35484 -9.09091 0
 4.35484 -8.18182 0 5.32258 -9.09091 0 5.32258 -8.18182 0
 5.32258 -9.09091 0 6.29032 -8.18182 0 5.32258 -8.18182 0
 6.29032 -8.18182 0 5.32258 -9.09091 0 6.29032 -9.09091 0
 7.25806 -9.09091 0 6.29032 -8.18182 0 6.29032 -9.09091 0
 6.29032 -8.18182 0 7.25806 -9.09091 0 7.25806 -8.18182 0
 7.25806 -9.09091 0 8.22581 -8.18182 0 7.25806 -8.18182 0
 8.22581 -8.18182 0 7.25806 -9.09091 0 8.22581 -9.09091 0
 9.19355 -9.09091 0 8.22581 -8.18182 0 8.22581 -9.09091 0
 8.22581 -8.18182 0 9.19355 -9.09091 0 9.19355 -8.18182 0
 9.19355 -9.09091 0 10.1613 -8.18182 0 9.19355 -8.18182 0
 10.1613 -8.18182 0 9.19355 -9.09091 0 10.1613 -9.09091 0
 11.129 -9.09091 0 10.1613 -8.18182 0 10.1613 -9.09091 0
 10.1613 -8.18182 0 11.129 -9.09091 0 11.129 -8.18182 0
 11.129 -9.09091 0 12.0968 -8.18182 0 11.129 -8.18182 0
 12.0968 -8.18182 0 11.129 -9.09091 0 12.0968 -9.09091 0
 13.0645 -9.09091 0 12.0968 -8.18182 0 12.0968 -9.09091 0
 12.0968 -8.18182 0 13.0645 -9.09091 0 13.0645 -8.18182 0
 13.0645 -9.09091 0 14.0323 -8.18182 0 13.0645 -8.18182 0
 14.0323 -8.18182 0 13.0645 -9.09091 0 14.0323 -9.09091 0
 15 -9.09091 0 14.0323 -8.18182 0 14.0323 -9.09091 0
 14.0323 -8.18182 0 15 -9.09091 0 15 -8.18182 0
 -15 -8.18182 0 -14.0323 -7.27273 0 -15 -7.27273 0
 -14.0323 -7.27273 0 -15 -8.18182 0 -14.0323 -8.18182 0
 -13.0645 -8.18182 0 -14.0323 -7.27273 0 -14.0323 -8.18182 0
 -14.0323 -7.27273 0 -13.0645 -8.18182 0 -13.0645 -7.27273 0
 -13.0645 -8.18182 0 -12.0968 -7.27273 0 -13.0645 -7.27273 0
 -12.0968 -7.27273 0 -13.0645 -8.18182 0 -12.0968 -8.18182 0
 -11.129 -8.18182 0 -12.0968 -7.27273 0 -12.0968 -8.18182 0
 -12.0968 -7.27273 0 -11.129 -8.18182 0 -11.129 -7.27273 0
 -11.129 -8.18182 0 -10.1613 -7.27273 0 -11.129 -7.27273 0
 -10.1613 -7.27273 0 -11.129 -8.18182 0 -10.1613 -8.18182 0
 -9.19355 -8.18182 0 -10.1613 -7.27273 0 -10.1613 -8.18182 0
 -10.1613 -7.27273 0 -9.19355 -8.18182 0 -9.19355 -7.27273 0
 -9.19355 -8.18182 0 -8.22581 -7.27273 0 -9.19355 -7.27273 0
 -8.22581 -7.27273 0 -9.19355 -8.18182 0 -8.22581 -8.18182 0
 -7.25806 -8.18182 0 -8.22581 -7.27273 0 -8.22581 -8.18182 0
 -8.22581 -7.27273 0 -7.25806 -8.18182 0 -7.25806 -7.27273 0
 -7.25806 -8.18182 0 -6.29032 -7.27273 0 -7.25806 -7.27273 0
 -6.29032 -7.27273 0 -7.25806 -8.18182 0 -6.29032 -8.18182 0
 -5.32258 -8.18182 0 -6.29032 -7.27273 0 -6.29032 -8.18182 0
 -6.29032 -7.27273 0 -5.32258 -8.18182 0 -5.32258 -7.27273 0
 -5.32258 -8.18182 0 -4.35484 -7.27273 0 -5.32258 -7.27273 0
 -4.35484 -7.27273 0 -5.32258 -8.18182 0 -4.35484 -8.18182 0
 -3.3871 -8.18182 0 -4.35484 -7.27273 0 -4.35484 -8.18182 0
 -4.35484 -7.27273 0 -3.3871 -8.18182 0 -3.3871 -7.27273 0
 -3.3871 -8.18182 0 -2.41935 -7.27273 0 -3.3871 -7.27273 0
 -2.41935 -7.27273 0 -3.3871 -8.18182 0 -2.41935 -8.18182 0
 -1.45161 -8.18182 0 -2.41935 -7.27273 0 -2.41935 -8.18182 0
 -2.41935 -7.27273 0 -1.45161 -8.18182 0 -1.45161 -7.27273 0
 -1.45161 -8.18182 0 -0.483871 -7.27273 0 -1.45161 -7.27273 0
 -0.483871 -7.27273 0 -1.45161 -8.18182 0 -0.483871 -8.18182 0
 0.483871 -8.18182 0 -0.483871 -7.27273 0 -0.483871 -8.18182 0
 -0.483871 -7.27273 0 0.483871 -8.18182 0 0.483871 -7.27273 0
 0.483871 -8.18182 0 1.45161 -7.27273 0 0.483871 -7.27273 0
 1.45161 -7.27273 0 0.483871 -8.18182 0 1.45161 -8.18182 0
 2.41935 -8.18182 0 1.45161 -7.27273 0 1.45161 -8.18182 0
 1.45161 -7.27273 0 2.41935 -8.18182 0 2.41935 -7.27273 0
 2.41935 -8.18182 0 3.3871 -7.27273 0 2.41935 -7.27273 0
 3.3871 -7.27273 0 2.41935 -8.18182 0 3.3871 -8.18182 0
 4.35484 -8.18182 0 3.3871 -7.27273 0 3.3871 -8.18182 0
 3.3871 -7.27273 0 4.35484 -8.18182 0 4.35484 -7.27273 0
 4.35484 -8.18182 0 5.32258 -7.27273 0 4.35484 -7.27273 0
 5.32258 -7.27273 0 4.35484 -8.18182 0 5.32258 -8.18182 0
 6.29032 -8.18182 0 5.32258 -7.27273 0 5.32258 -8.18182 0
 5.32258 -7.27273 0 6.29032 -8.18182 0 6.29032 -7.27273 0
 6.29032 -8.18182 0 7.25806 -7.27273 0 6.29032 -7.27273 0
 7.25806 -7.27273 0 6.29032 -8.18182 0 7.25806 -8.18182 0
 8.22581 -8.18182 0 7.25806 -7.27273 0 7.25806 -8.18182 0
 7.25806 -7.27273 0 8.22581 -8.18182 0 8.22581 -7.27273 0
 8.22581 -8.18182 0 9.19355 -7.27273 0 8.22581 -7.27273 0
 9.19355 -7.27273 0 8.22581 -8.18182 0 9.19355 -8.18182 0
 10.1613 -8.18182 0 9.19355 -7.27273 0 9.19355 -8.18182 0
 9.19355 -7.27273 0 10.1613 -8.18182 0 10.1613 -7.27273 0
 10.1613 -8.18182 0 11.129 -7.27273 0 10.1613 -7.27273 0
 11.129 -7.27273 0 10.1613 -8.18182 0 11.129 -8.18182 0
 12.0968 -8.18182 0 11.129 -7.27273 0 11.129 -8.18182 0
 11.129 -7.27273 0 12.0968 -8.18182 0 12.0968 -7.27273 0
 12.0968 -8.18182 0 13.0645 -7.27273 0 12.0968 -7.27273 0
 13.0645 -7.27273 0 12.0968 -8.18182 0 13.0645 -8.18182 0
 14.0323 -8.18182 0 13.0645 -7.27273 0 13.0645 -8.18182 0
 13.0645 -7.27273 0 14.0323 -8.18182 0 14.0323 -7.27273 0
 14.0323 -8.18182 0 15 -7.27273 0 14.0323 -7.27273 0
 15 -7.27273 0 14.0323 -8.18182 0 15 -8.18182 0
 -14.0323 -7.27273 0 -15 -6.36364 0 -15 -7.27273 0
 -15 -6.36364 0 -14.0323 -7.27273 0 -14.0323 -6.36364 0
 -14.0323 -7.27273 0 -13.0645 -6.36364 0 -14.0323 -6.36364 0
 -13.0645 -6.36364 0 -14.0323 -7.27273 0 -13.0645 -7.27273 0
 -12.0968 -7.27273 0 -13.0645 -6.36364 0 -13.0645 -7.27273 0
 -13.0645 -6.36364 0 -12.0968 -7.27273 0 -12.0968 -6.36364 0
 -12.0968 -7.27273 0 -11.129 -6.36364 0 -12.0968 -6.36364 0
 -11.129 -6.36364 0 -12.0968 -7.27273 0 -11.129 -7.27273 0
 -10.1613 -7.27273 0 -11.129 -6.36364 0 -11.129 -7.27273 0
 -11.129 -6.36364 0 -10.1613 -7.27273 0 -10.1613 -6.36364 0
 -10.1613 -7.27273 0 -9.19355 -6.36364 0 -10.1613 -6.36364 0
 -9.19355 -6.36364 0 -10.1613 -7.27273 0 -9.19355 -7.27273 0
 -8.22581 -7.27273 0 -9.19355 -6.36364 0 -9.19355 -7.27273 0
 -9.19355 -6.36364 0 -8.22581 -7.27273 0 -8.22581 -6.36364 0
 -8.22581 -7.27273 0 -7.25806 -6.36364 0 -8.22581 -6.36364 0
 -7.25806 -6.36364 0 -8.22581 -7.27273 0 -7.25806 -7.27273 0
 -6.29032 -7.27273 0 -7.25806 -6.36364 0 -7.25806 -7.27273 0
 -7.25806 -6.36364 0 -6.29032 -7.27273 0 -6.29032 -6.36364 0
 -6.29032 -7.27273 0 -5.32258 -6.36364 0 -6.29032 -6.36364 0
 -5.32258 -6.36364 0 -6.29032 -7.27273 0 -5.32258 -7.27273 0
 -4.35484 -7.27273 0 -5.32258 -6.36364 0 -5.32258 -7.27273 0
 -5.32258 -6.36364 0 -4.35484 -7.27273 0 -4.35484 -6.36364 0
 -4.35484 -7.27273 0 -3.3871 -6.36364 0 -4.35484 -6.36364 0
 -3.3871 -6.36364 0 -4.35484 -7.27273 0 -3.3871 -7.27273 0
 -2.41935 -7.27273 0 -3.3871 -6.36364 0 -3.3871 -7.27273 0
 -3.3871 -6.36364 0 -2.41935 -7.27273 0 -2.41935 -6.36364 0
 -2.41935 -7.27273 0 -1.45161 -6.36364 0 -2.41935 -6.36364 0
 -1.45161 -6.36364 0 -2.41935 -7.27273 0 -1.45161 -7.27273 0
 -0.483871 -7.27273 0 -1.45161 -6.36364 0 -1.45161 -7.27273 0
 -1.45161 -6.36364 0 -0.483871 -7.27273 0 -0.483871 -6.36364 0
 -0.483871 -7.27273 0 0.483871 -6.36364 0 -0.483871 -6.36364 0
 0.483871 -6.36364 0 -0.483871 -7.27273 0 0.483871 -7.27273 0
 1.45161 -7.27273 0 0.483871 -6.36364 0 0.483871 -7.27273 0
 0.483871 -6.36364 0 1.45161 -7.27273 0 1.45161 -6.36364 0
 1.45161 -7.27273 0 2.41935 -6.36364 0 1.45161 -6.36364 0
 2.41935 -6.36364 0 1.45161 -7.27273 0 2.41935 -7.27273 0
 3.3871 -7.27273 0 2.41935 -6.36364 0 2.41935 -7.27273 0
 2.41935 -6.36364 0 3.3871 -7.27273 0 3.3871 -6.36364 0
 3.3871 -7.27273 0 4.35484 -6.36364 0 3.3871 -6.36364 0
 4.35484 -6.36364 0 3.3871 -7.27273 0 4.35484 -7.27273 0
 5.32258 -7.27273 0 4.35484 -6.36364 0 4.35484 -7.27273 0
 4.35484 -6.36364 0 5.32258 -7.27273 0 5.32258 -6.36364 0
 5.32258 -7.27273 0 6.29032 -6.36364 0 5.32258 -6.36364 0
 6.29032 -6.36364 0 5.32258 -7.27273 0 6.29032 -7.27273 0
 7.25806 -7.27273 0 6.29032 -6.36364 0 6.29032 -7.27273 0
 6.29032 -6.36364 0 7.25806 -7.27273 0 7.25806 -6.36364 0
 7.25806 -7.27273 0 8.22581 -6.36364 0 7.25806 -6.36364 0
 8.22581 -6.36364 0 7.25806 -7.27273 0 8.22581 -7.27273 0
 9.19355 -7.27273 0 8.22581 -6.36364 0 8.22581 -7.27273 0
 8.22581 -6.36364 0 9.19355 -7.27273 0 9.19355 -6.36364 0
 9.19355 -7.27273 0 10.1613 -6.36364 0 9.19355 -6.36364 0
 10.1613 -6.36364 0 9.19355 -7.27273 0 10.1613 -7.27273 0
 11.129 -7.27273 0 10.1613 -6.36364 0 10.1613 -7.27273 0
 10.1613 -6.36364 0 11.129 -7.27273 0 11.129 -6.36364 0
 11.129 -7.27273 0 12.0968 -6.36364 0 11.129 -6.36364 0
 12.0968 -6.36364 0 11.129 -7.27273 0 12.0968 -7.27273 0
 13.0645 -7.27273 0 12.0968 -6.36364 0 12.0968 -7.27273 0
 12.0968 -6.36364 0 13.0645 -7.27273 0 13.0645 -6.36364 0
 13.0645 -7.27273 0 14.0323 -6.36364 0 13.0645 -6.36364 0
 14.0323 -6.36364 0 13.0645 -7.27273 0 14.0323 -7.27273 0
 15 -7.27273 0 14.0323 -6.36364 0 14.0323 -7.27273 0
 14.0323 -6.36364 0 15 -7.27273 0 15 -6.36364 0
 -15 -6.36364 0 -14.0323 -5.45455 0 -15 -5.45455 0
 -14.0323 -5.45455 0 -15 -6.36364 0 -14.0323 -6.36364 0
 -13.0645 -6.36364 0 -14.0323 -5.45455 0 -14.0323 -6.36364 0
 -14.0323 -5.45455 0 -13.0645 -6.36364 0 -13.0645 -5.45455 0
 -13.0645 -6.36364 0 -12.0968 -5.45455 0 -13.0645 -5.45455 0
 -12.0968 -5.45455 0 -13.0645 -6.36364 0 -12.0968 -6.36364 0
 -11.129 -6.36364 0 -12.0968 -5.45455 0 -12.0968 -6.36364 0
 -12.0968 -5.45455 0 -11.129 -6.36364 0 -11.129 -5.45455 0
 -11.129 -6.36364 0 -10.1613 -5.45455 0 -11.129 -5.45455 0
 -10.1613 -5.45455 0 -11.129 -6.36364 0 -10.1613 -6.36364 0
 -9.19355 -6.36364 0 -10.1613 -5.45455 0 -10.1613 -6.36364 0
 -10.1613 -5.45455 0 -9.19355 -6.36364 0 -9.19355 -5.45455 0
 -9.19355 -6.36364 0 -8.22581 -5.45455 0 -9.19355 -5.45455 0
 -8.22581 -5.45455 0 -9.19355 -6.36364 0 -8.22581 -6.36364 0
 -7.25806 -6.36364 0 -8.22581 -5.45455 0 -8.22581 -6.36364 0
 -8.22581 -5.45455 0 -7.25806 -6.36364 0 -7.25806 -5.45455 0
 -7.25806 -6.36364 0 -6.29032 -5.45455 0 -7.25806 -5.45455 0
 -6.29032 -5.45455 0 -7.25806 -6.36364 0 -6.29032 -6.36364 0
 -5.32258 -6.36364 0 -6.29032 -5.45455 0 -6.29032 -6.36364 0
 -6.29032 -5.45455 0 -5.32258 -6.36364 0 -5.32258 -5.45455 0
 -5.32258 -6.36364 0 -4.35484 -5.45455 0 -5.32258 -5.45455 0
 -4.35484 -5.45455 0 -5.32258 -6.36364 0 -4.35484 -6.36364 0
 -3.3871 -6.36364 0 -4.35484 -5.45455 0 -4.35484 -6.36364 0
 -4.35484 -5.45455 0 -3.3871 -6.36364 0 -3.3871 -5.45455 0
 -3.3871 -6.36364 0 -2.41935 -5.45455 0 -3.3871 -5.45455 0
 -2.41935 -5.45455 0 -3.3871 -6.36364 0 -2.41935 -6.36364 0
 -1.45161 -6.36364 0 -2.41935 -5.45455 0 -2.41935 -6.36364 0
 -2.41935 -5.45455 0 -1.45161 -6.36364 0 -1.45161 -5.45455 0
 -1.45161 -6.36364 0 -0.483871 -5.45455 0 -1.45161 -5.45455 0
 -0.483871 -5.45455 0 -1.45161 -6.36364 0 -0.483871 -6.36364 0
 0.483871 -6.36364 0 -0.483871 -5.45455 0 -0.483871 -6.36364 0
 -0.483871 -5.45455 0 0.483871 -6.36364 0 0.483871 -5.45455 0
 0.483871 -6.36364 0 1.45161 -5.45455 0 0.483871 -5.45455 0
 1.45161 -5.45455 0 0.483871 -6.36364 0 1.45161 -6.36364 0
 2.41935 -6.36364 0 1.45161 -5.45455 0 1.45161 -6.36364 0
 1.45161 -5.45455 0 2.41935 -6.36364 0 2.41935 -5.45455 0
 2.41935 -6.36364 0 3.3871 -5.45455 0 2.41935 -5.45455 0
 3.3871 -5.45455 0 2.41935 -6.36364 0 3.3871 -6.36364 0
 4.35484 -6.36364 0 3.3871 -5.45455 0 3.3871 -6.36364 0
 3.3871 -5.45455 0 4.35484 -6.36364 0 4.35484 -5.45455 0
 4.35484 -6.36364 0 5.32258 -5.45455 0 4.35484 -5.45455 0
 5.32258 -5.45455 0 4.35484 -6.36364 0 5.32258 -6.36364 0
 6.29032 -6.36364 0 5.32258 -5.45455 0 5.32258 -6.36364 0
 5.32258 -5.45455 0 6.29032 -6.36364 0 6.29032 -5.45455 0
 6.29032 -6.36364 0 7.25806 -5.45455 0 6.29032 -5.45455 0
 7.25806 -5.45455 0 6.29032 -6.36364 0 7.25806 -6.36364 0
 8.22581 -6.36364 0 7.25806 -5.45455 0 7.25806 -6.36364 0
 7.25806 -5.45455 0 8.22581 -6.36364 0 8.22581 -5.45455 0
 8.22581 -6.36364 0 9.19355 -5.45455 0 8.22581 -5.45455 0
 9.19355 -5.45455 0 8.22581 -6.36364 0 9.19355 -6.36364 0
 10.1613 -6.36364 0 9.19355 -5.45455 0 9.19355 -6.36364 0
 9.19355 -5.45455 0 10.1613 -6.36364 0 10.1613 -5.45455 0
 10.1613 -6.36364 0 11.129 -5.45455 0 10.1613 -5.45455 0
 11.129 -5.45455 0 10.1613 -6.36364 0 11.129 -6.36364 0
 12.0968 -6.36364 0 11.129 -5.45455 0 11.129 -6.36364 0
 11.129 -5.45455 0 12.0968 -6.36364 0 12.0968 -5.45455 0
 12.0968 -6.36364 0 13.0645 -5.45455 0 12.0968 -5.45455 0
 13.0645 -5.45455 0 12.0968 -6.36364 0 13.0645 -6.36364 0
 14.0323 -6.36364 0 13.0645 -5.45455 0 13.0645 -6.36364 0
 13.0645 -5.45455 0 14.0323 -6.36364 0 14.0323 -5.45455 0
 14.0323 -6.36364 0 15 -5.45455 0 14.0323 -5.45455 0
 15 -5.45455 0 14.0323 -6.36364 0 15 -6.36364 0
 -14.0323 -5.45455 0 -15 -4.54545 0 -15 -5.45455 0
 -15 -4.54545 0 -14.0323 -5.45455 0 -14.0323 -4.54545 0
 -14.0323 -5.45455 0 -13.0645 -4.54545 0 -14.0323 -4.54545 0
 -13.0645 -4.54545 0 -14.0323 -5.45455 0 -13.0645 -5.45455 0
 -12.0968 -5.45455 0 -13.0645 -4.54545 0 -13.0645 -5.45455 0
 -13.0645 -4.54545 0 -12.0968 -5.45455 0 -12.0968 -4.54545 0
 -12.0968 -5.45455 0 -11.129 -4.54545 0 -12.0968 -4.54545 0
 -11.129 -4.54545 0 -12.0968 -5.45455 0 -11.129 -5.45455 0
 -10.1613 -5.45455 0 -11.129 -4.54545 0 -11.129 -5.45455 0
 -11.129 -4.54545 0 -10.1613 -5.45455 0 -10.1613 -4.54545 0
 -10.1613 -5.45455 0 -9.19355 -4.54545 0 -10.1613 -4.54545 0
 -9.19355 -4.54545 0 -10.1613 -5.45455 0 -9.19355 -5.45455 0
 -8.22581 -5.45455 0 -9.19355 -4.54545 0 -9.19355 -5.45455 0
 -9.19355 -4.54545 0 -8.22581 -5.45455 0 -8.22581 -4.54545 0
 -8.22581 -5.45455 0 -7.25806 -4.54545 0 -8.22581 -4.54545 0
 -7.25806 -4.54545 0 -8.22581 -5.45455 0 -7.25806 -5.45455 0
 -6.29032 -5.45455 0 -7.25806 -4.54545 0 -7.25806 -5.45455 0
 -7.25806 -4.54545 0 -6.29032 -5.45455 0 -6.29032 -4.54545 0
 -6.29032 -5.45455 0 -5.32258 -4.54545 0 -6.29032 -4.54545 0
 -5.32258 -4.54545 0 -6.29032 -5.45455 0 -5.32258 -5.45455 0
 -4.35484 -5.45455 0 -5.32258 -4.54545 0 -5.32258 -5.45455 0
 -5.32258 -4.54545 0 -4.35484 -5.45455 0 -4.35484 -4.54545 0
 -4.35484 -5.45455 0 -3.3871 -4.54545 0 -4.35484 -4.54545 0
 -3.3871 -4.54545 0 -4.35484 -5.45455 0 -3.3871 -5.45455 0
 -2.41935 -5.45455 0 -3.3871 -4.54545 0 -3.3871 -5.45455 0
 -3.3871 -4.54545 0 -2.41935 -5.45455 0 -2.41935 -4.54545 0
 -2.41935 -5.45455 0 -1.45161 -4.54545 0 -2.41935 -4.54545 0
 -1.45161 -4.54545 0 -2.41935 -5.45455 0 -1.45161 -5.45455 0
 -0.483871 -5.45455 0 -1.45161 -4.54545 0 -1.45161 -5.45455 0
 -1.45161 -4.54545 0 -0.483871 -5.45455 0 -0.483871 -4.54545 0
 -0.483871 -5.45455 0 0.483871 -4.54545 0 -0.483871 -4.54545 0
 0.483871 -4.54545 0 -0.483871 -5.45455 0 0.483871 -5.45455 0
 1.45161 -5.45455 0 0.483871 -4.54545 0 0.483871 -5.45455 0
 0.483871 -4.54545 0 1.45161 -5.45455 0 1.45161 -4.54545 0
 1.45161 -5.45455 0 2.41935 -4.54545 0 1.45161 -4.54545 0
 2.41935 -4.54545 0 1.45161 -5.45455 0 2.41935 -5.45455 0
 3.3871 -5.45455 0 2.41935 -4.54545 0 2.41935 -5.45455 0
 2.41935 -4.54545 0 3.3871 -5.45455 0 3.3871 -4.54545 0
 3.3871 -5.45455 0 4.35484 -4.54545 0 3.3871 -4.54545 0
 4.35484 -4.54545 0 3.3871 -5.45455 0 4.35484 -5.45455 0
 5.32258 -5.45455 0 4.35484 -4.54545 0 4.35484 -5.45455 0
 4.35484 -4.54545 0 5.32258 -5.45455 0 5.32258 -4.54545 0
 5.32258 -5.45455 0 6.29032 -4.54545 0 5.32258 -4.54545 0
 6.29032 -4.54545 0 5.32258 -5.45455 0 6.29032 -5.45455 0
 7.25806 -5.45455 0 6.29032 -4.54545 0 6.29032 -5.45455 0
 6.29032 -4.54545 0 7.25806 -5.45455 0 7.25806 -4.54545 0
 7.25806 -5.45455 0 8.22581 -4.54545 0 7.25806 -4.54545 0
 8.22581 -4.54545 0 7.25806 -5.45455 0 8.22581 -5.45455 0
 9.19355 -5.45455 0 8.22581 -4.54545 0 8.22581 -5.45455 0
 8.22581 -4.54545 0 9.19355 -5.45455 0 9.19355 -4.54545 0
 9.19355 -5.45455 0 10.1613 -4.54545 0 9.19355 -4.54545 0
 10.1613 -4.54545 0 9.19355 -5.45455 0 10.1613 -5.45455 0
 11.129 -5.45455 0 10.1613 -4.54545 0 10.1613 -5.45455 0
 10.1613 -4.54545 0 11.129 -5.45455 0 11.129 -4.54545 0
 11.129 -5.45455 0 12.0968 -4.54545 0 11.129 -4.54545 0
 12.0968 -4.54545 0 11.129 -5.45455 0 12.0968 -5.45455 0
 13.0645 -5.45455 0 12.0968 -4.54545 0 12.0968 -5.45455 0
 12.0968 -4.54545 0 13.0645 -5.45455 0 13.0645 -4.54545 0
 13.0645 -5.45455 0 14.0323 -4.54545 0 13.0645 -4.54545 0
 14.0323 -4.54545 0 13.0645 -5.45455 0 14.0323 -5.45455 0
 15 -5.45455 0 14.0323 -4.54545 0 14.0323 -5.45455 0
 14.0323 -4.54545 0 15 -5.45455 0 15 -4.54545 0
 -15 -4.54545 0 -14.0323 -3.63636 0 -15 -3.63636 0
 -14.0323 -3.63636 0 -15 -4.54545 0 -14.0323 -4.54545 0
 -13.0645 -4.54545 0 -14.0323 -3.63636 0 -14.0323 -4.54545 0
 -14.0323 -3.63636 0 -13.0645 -4.54545 0 -13.0645 -3.63636 0
 -13.0645 -4.54545 0 -12.0968 -3.63636 0 -13.0645 -3.63636 0
 -12.0968 -3.63636 0 -13.0645 -4.54545 0 -12.0968 -4.54545 0
 -11.129 -4.54545 0 -12.0968 -3.63636 0 -12.0968 -4.54545 0
 -12.0968 -3.63636 0 -11.129 -4.54545 0 -11.129 -3.63636 0
 -11.129 -4.54545 0 -10.1613 -3.63636 0 -11.129 -3.63636 0
 -10.1613 -3.63636 0 -11.129 -4.54545 0 -10.1613 -4.54545 0
 -9.19355 -4.54545 0 -10.1613 -3.63636 0 -10.1613 -4.54545 0
 -10.1613 -3.63636 0 -9.19355 -4.54545 0 -9.19355 -3.63636 0
 -9.19355 -4.54545 0 -8.22581 -3.63636 0 -9.19355 -3.63636 0
 -8.22581 -3.63636 0 -9.19355 -4.54545 0 -8.22581 -4.54545 0
 -7.25806 -4.54545 0 -8.22581 -3.63636 0 -8.22581 -4.54545 0
 -8.22581 -3.63636 0 -7.25806 -4.54545 0 -7.25806 -3.63636 0
 -7.25806 -4.54545 0 -6.29032 -3.63636 0 -7.25806 -3.63636 0
 -6.29032 -3.63636 0 -7.25806 -4.54545 0 -6.29032 -4.54545 0
 -5.32258 -4.54545 0 -6.29032 -3.63636 0 -6.29032 -4.54545 0
 -6.29032 -3.63636 0 -5.32258 -4.54545 0 -5.32258 -3.63636 0
 -5.32258 -4.54545 0 -4.35484 -3.63636 0 -5.32258 -3.63636 0
 -4.35484 -3.63636 0 -5.32258 -4.54545 0 -4.35484 -4.54545 0
 -3.3871 -4.54545 0 -4.35484 -3.63636 0 -4.35484 -4.54545 0
 -4.35484 -3.63636 0 -3.3871 -4.54545 0 -3.3871 -3.63636 0
 -3.3871 -4.54545 0 -2.41935 -3.63636 0 -3.3871 -3.63636 0
 -2.41935 -3.63636 0 -3.3871 -4.54545 0 -2.41935 -4.54545 0
 -1.45161 -4.54545 0 -2.41935 -3.63636 0 -2.41935 -4.54545 0
 -2.41935 -3.63636 0 -1.45161 -4.54545 0 -1.45161 -3.63636 0
 -1.45161 -4.54545 0 -0.483871 -3.63636 0 -1.45161 -3.63636 0
 -0.483871 -3.63636 0 -1.45161 -4.54545 0 -0.483871 -4.54545 0
 0.483871 -4.54545 0 -0.483871 -3.63636 0 -0.483871 -4.54545 0
 -0.483871 -3.63636 0 0.483871 -4.54545 0 0.483871 -3.63636 0
 0.483871 -4.54545 0 1.45161 -3.63636 0 0.483871 -3.63636 0
 1.45161 -3.63636 0 0.483871 -4.54545 0 1.45161 -4.54545 0
 2.41935 -4.54545 0 1.45161 -3.63636 0 1.45161 -4.54545 0
 1.45161 -3.63636 0 2.41935 -4.54545 0 2.41935 -3.63636 0
 2.41935 -4.54545 0 3.3871 -3.63636 0 2.41935 -3.63636 0
 3.3871 -3.63636 0 2.41935 -4.54545 0 3.3871 -4.54545 0
 4.35484 -4.54545 0 3.3871 -3.63636 0 3.3871 -4.54545 0
 3.3871 -3.63636 0 4.35484 -4.54545 0 4.35484 -3.63636 0
 4.35484 -4.54545 0 5.32258 -3.63636 0 4.35484 -3.63636 0
 5.32258 -3.63636 0 4.35484 -4.54545 0 5.32258 -4.54545 0
 6.29032 -4.54545 0 5.32258 -3.63636 0 5.32258 -4.54545 0
 5.32258 -3.63636 0 6.29032 -4.54545 0 6.29032 -3.63636 0
 6.29032 -4.54545 0 7.25806 -3.63636 0 6.29032 -3.63636 0
 7.25806 -3.63636 0 6.29032 -4.54545 0 7.25806 -4.54545 0
 8.22581 -4.54545 0 7.25806 -3.63636 0 7.25806 -4.54545 0
 7.25806 -3.63636 0 8.22581 -4.54545 0 8.22581 -3.63636 0
 8.22581 -4.54545 0 9.19355 -3.63636 0 8.22581 -3.63636 0
 9.19355 -3.63636 0 8.22581 -4.54545 0 9.19355 -4.54545 0
 10.1613 -4.54545 0 9.19355 -3.63636 0 9.19355 -4.54545 0
 9.19355 -3.63636 0 10.1613 -4.54545 0 10.1613 -3.63636 0
 10.1613 -4.54545 0 11.129 -3.63636 0 10.1613 -3.63636 0
 11.129 -3.63636 0 10.1613 -4.54545 0 11.129 -4.54545 0
 12.0968 -4.54545 0 11.129 -3.63636 0 11.129 -4.54545 0
 11.129 -3.63636 0 12.0968 -4.54545 0 12.0968 -3.63636 0
 12.0968 -4.54545 0 13.0645 -3.63636 0 12.0968 -3.63636 0
 13.0645 -3.63636 0 12.0968 -4.54545 0 13.0645 -4.54545 0
 14.0323 -4.54545 0 13.0645 -3.63636 0 13.0645 -4.54545 0
 13.0645 -3.63636 0 14.0323 -4.54545 0 14.0323 -3.63636 0
 14.0323 -4.54545 0 15 -3.63636 0 14.0323 -3.63636 0
 15 -3.63636 0 14.0323 -4.54545 0 15 -4.54545 0
 -14.0323 -3.63636 0 -15 -2.72727 0 -15 -3.63636 0
 -15 -2.72727 0 -14.0323 -3.63636 0 -14.0323 -2.72727 0
 -14.0323 -3.63636 0 -13.0645 -2.72727 0 -14.0323 -2.72727 0
 -13.0645 -2.72727 0 -14.0323 -3.63636 0 -13.0645 -3.63636 0
 -12.0968 -3.63636 0 -13.0645 -2.72727 0 -13.0645 -3.63636 0
 -13.0645 -2.72727 0 -12.0968 -3.63636 0 -12.0968 -2.72727 0
 -12.0968 -3.63636 0 -11.129 -2.72727 0 -12.0968 -2.72727 0
 -11.129 -2.72727 0 -12.0968 -3.63636 0 -11.129 -3.63636 0
 -10.1613 -3.63636 0 -11.129 -2.72727 0 -11.129 -3.63636 0
 -11.129 -2.72727 0 -10.1613 -3.63636 0 -10.1613 -2.72727 0
 -10.1613 -3.63636 0 -9.19355 -2.72727 0 -10.1613 -2.72727 0
 -9.19355 -2.72727 0 -10.1613 -3.63636 0 -9.19355 -3.63636 0
 -8.22581 -3.63636 0 -9.19355 -2.72727 0 -9.19355 -3.63636 0
 -9.19355 -2.72727 0 -8.22581 -3.63636 0 -8.22581 -2.72727 0
 -8.22581 -3.63636 0 -7.25806 -2.72727 0 -8.22581 -2.72727 0
 -7.25806 -2.72727 0 -8.22581 -3.63636 0 -7.25806 -3.63636 0
 -6.29032 -3.63636 0 -7.25806 -2.72727 0 -7.25806 -3.63636 0
 -7.25806 -2.72727 0 -6.29032 -3.63636 0 -6.29032 -2.72727 0
 -6.29032 -3.63636 0 -5.32258 -2.72727 0 -6.29032 -2.72727 0
 -5.32258 -2.72727 0 -6.29032 -3.63636 0 -5.32258 -3.63636 0
 -4.35484 -3.63636 0 -5.32258 -2.72727 0 -5.32258 -3.63636 0
 -5.32258 -2.72727 0 -4.35484 -3.63636 0 -4.35484 -2.72727 0
 -4.35484 -3.63636 0 -3.3871 -2.72727 0 -4.35484 -2.72727 0
 -3.3871 -2.72727 0 -4.35484 -3.63636 0 -3.3871 -3.63636 0
 -2.41935 -3.63636 0 -3.3871 -2.72727 0 -3.3871 -3.63636 0
 -3.3871 -2.72727 0 -2.41935 -3.63636 0 -2.41935 -2.72727 0
 -2.41935 -3.63636 0 -1.45161 -2.72727 0 -2.41935 -2.72727 0
 -1.45161 -2.72727 0 -2.41935 -3.63636 0 -1.45161 -3.63636 0
 -0.483871 -3.63636 0 -1.45161 -2.72727 0 -1.45161 -3.63636 0
 -1.45161 -2.72727 0 -0.483871 -3.63636 0 -0.483871 -2.72727 0
 -0.483871 -3.63636 0 0.483871 -2.72727 0 -0.483871 -2.72727 0
 0.483871 -2.72727 0 -0.483871 -3.63636 0 0.483871 -3.63636 0
 1.45161 -3.63636 0 0.483871 -2.72727 0 0.483871 -3.63636 0
 0.483871 -2.72727 0 1.45161 -3.63636 0 1.45161 -2.72727 0
 1.45161 -3.63636 0 2.41935 -2.72727 0 1.45161 -2.72727 0
 2.41935 -2.72727 0 1.45161 -3.63636 0 2.41935 -3.63636 0
 3.3871 -3.63636 0 2.41935 -2.72727 0 2.41935 -3.63636 0
 2.41935 -2.72727 0 3.3871 -3.63636 0 3.3871 -2.72727 0
 3.3871 -3.63636 0 4.35484 -2.72727 0 3.3871 -2.72727 0
 4.35484 -2.72727 0 3.3871 -3.63636 0 4.35484 -3.63636 0
 5.32258 -3.63636 0 4.35484 -2.72727 0 4.35484 -3.63636 0
 4.35484 -2.72727 0 5.32258 -3.63636 0 5.32258 -2.72727 0
 5.32258 -3.63636 0 6.29032 -2.72727 0 5.32258 -2.72727 0
 6.29032 -2.72727 0 5.32258 -3.63636 0 6.29032 -3.63636 0
 7.25806 -3.63636 0 6.29032 -2.72727 0 6.29032 -3.63636 0
 6.29032 -2.72727 0 7.25806 -3.63636 0 7.25806 -2.72727 0
 7.25806 -3.63636 0 8.22581 -2.72727 0 7.25806 -2.72727 0
 8.22581 -2.72727 0 7.25806 -3.63636 0 8.22581 -3.63636 0
 9.19355 -3.63636 0 8.22581 -2.72727 0 8.22581 -3.63636 0
 8.22581 -2.72727 0 9.19355 -3.63636 0 9.19355 -2.72727 0
 9.19355 -3.63636 0 10.1613 -2.72727 0 9.19355 -2.72727 0
 10.1613 -2.72727 0 9.19355 -3.63636 0 10.1613 -3.63636 0
 11.129 -3.63636 0 10.1613 -2.72727 0 10.1613 -3.63636 0
 10.1613 -2.72727 0 11.129 -3.63636 0 11.129 -2.72727 0
 11.129 -3.63636 0 12.0968 -2.72727 0 11.129 -2.72727 0
 12.0968 -2.72727 0 11.129 -3.63636 0 12.0968 -3.63636 0
 13.0645 -3.63636 0 12.0968 -2.72727 0 12.0968 -3.63636 0
 12.0968 -2.72727 0 13.0645 -3.63636 0 13.0645 -2.72727 0
 13.0645 -3.63636 0 14.0323 -2.72727 0 13.0645 -2.72727 0
 14.0323 -2.72727 0 13.0645 -3.63636 0 14.0323 -3.63636 0
 15 -3.63636 0 14.0323 -2.72727 0 14.0323 -3.63636 0
 14.0323 -2.72727 0 15 -3.63636 0 15 -2.72727 0
 -15 -2.72727 0 -14.0323 -1.81818 0 -15 -1.81818 0
 -14.0323 -1.81818 0 -15 -2.72727 0 -14.0323 -2.72727 0
 -13.0645 -2.72727 0 -14.0323 -1.81818 0 -14.0323 -2.72727 0
 -14.0323 -1.81818 0 -13.0645 -2.72727 0 -13.0645 -1.81818 0
 -13.0645 -2.72727 0 -12.0968 -1.81818 0 -13.0645 -1.81818 0
 -12.0968 -1.81818 0 -13.0645 -2.72727 0 -12.0968 -2.72727 0
 -11.129 -2.72727 0 -12.0968 -1.81818 0 -12.0968 -2.72727 0
 -12.0968 -1.81818 0 -11.129 -2.72727 0 -11.129 -1.81818 0
 -11.129 -2.72727 0 -10.1613 -1.81818 0 -11.129 -1.81818 0
 -10.1613 -1.81818 0 -11.129 -2.72727 0 -10.1613 -2.72727 0
 -9.19355 -2.72727 0 -10.1613 -1.81818 0 -10.1613 -2.72727 0
 -10.1613 -1.81818 0 -9.19355 -2.72727 0 -9.19355 -1.81818 0
 -9.19355 -2.72727 0 -8.22581 -1.81818 0 -9.19355 -1.81818 0
 -8.22581 -1.81818 0 -9.19355 -2.72727 0 -8.22581 -2.72727 0
 -7.25806 -2.72727 0 -8.22581 -1.81818 0 -8.22581 -2.72727 0
 -8.22581 -1.81818 0 -7.25806 -2.72727 0 -7.25806 -1.81818 0
 -7.25806 -2.72727 0 -6.29032 -1.81818 0 -7.25806 -1.81818 0
 -6.29032 -1.81818 0 -7.25806 -2.72727 0 -6.29032 -2.72727 0
 -5.32258 -2.72727 0 -6.29032 -1.81818 0 -6.29032 -2.72727 0
 -6.29032 -1.81818 0 -5.32258 -2.72727 0 -5.32258 -1.81818 0
 -5.32258 -2.72727 0 -4.35484 -1.81818 0 -5.32258 -1.81818 0
 -4.35484 -1.81818 0 -5.32258 -2.72727 0 -4.35484 -2.72727 0
 -3.3871 -2.72727 0 -4.35484 -1.81818 0 -4.35484 -2.72727 0
 -4.35484 -1.81818 0 -3.3871 -2.72727 0 -3.3871 -1.81818 0
 -3.3871 -2.72727 0 -2.41935 -1.81818 0 -3.3871 -1.81818 0
 -2.41935 -1.81818 0 -3.3871 -2.72727 0 -2.41935 -2.72727 0
 -1.45161 -2.72727 0 -2.41935 -1.81818 0 -2.41935 -2.72727 0
 -2.41935 -1.81818 0 -1.45161 -2.72727 0 -1.45161 -1.81818 0
 -1.45161 -2.72727 0 -0.483871 -1.81818 0 -1.45161 -1.81818 0
 -0.483871 -1.81818 0 -1.45161 -2.72727 0 -0.483871 -2.72727 0
 0.483871 -2.72727 0 -0.483871 -1.81818 0 -0.483871 -2.72727 0
 -0.483871 -1.81818 0 0.483871 -2.72727 0 0.483871 -1.81818 0
 0.483871 -2.72727 0 1.45161 -1.81818 0 0.483871 -1.81818 0
 1.45161 -1.81818 0 0.483871 -2.72727 0 1.45161 -2.72727 0
 2.41935 -2.72727 0 1.45161 -1.81818 0 1.45161 -2.72727 0
 1.45161 -1.81818 0 2.41935 -2.72727 0 2.41935 -1.81818 0
 2.41935 -2.72727 0 3.3871 -1.81818 0 2.41935 -1.81818 0
 3.3871 -1.81818 0 2.41935 -2.72727 0 3.3871 -2.72727 0
 4.35484 -2.72727 0 3.3871 -1.81818 0 3.3871 -2.72727 0
 3.3871 -1.81818 0 4.35484 -2.72727 0 4.35484 -1.81818 0
 4.35484 -2.72727 0 5.32258 -1.81818 0 4.35484 -1.81818 0
 5.32258 -1.81818 0 4.35484 -2.72727 0 5.32258 -2.72727 0
 6.29032 -2.72727 0 5.32258 -1.81818 0 5.32258 -2.72727 0
 5.32258 -1.81818 0 6.29032 -2.72727 0 6.29032 -1.81818 0
 6.29032 -2.72727 0 7.25806 -1.81818 0 6.29032 -1.81818 0
 7.25806 -1.81818 0 6.29032 -2.72727 0 7.25806 -2.72727 0
 8.22581 -2.72727 0 7.25806 -1.81818 0 7.25806 -2.72727 0
 7.25806 -1.81818 0 8.22581 -2.72727 0 8.22581 -1.81818 0
 8.22581 -2.72727 0 9.19355 -1.81818 0 8.22581 -1.81818 0
 9.19355 -1.81818 0 8.22581 -2.72727 0 9.19355 -2.72727 0
 10.1613 -2.72727 0 9.19355 -1.81818 0 9.19355 -2.72727 0
 9.19355 -1.81818 0 10.1613 -2.72727 0 10.1613 -1.81818 0
 10.1613 -2.72727 0 11.129 -1.81818 0 10.1613 -1.81818 0
 11.129 -1.81818 0 10.1613 -2.72727 0 11.129 -2.72727 0
 12.0968 -2.72727 0 11.129 -1.81818 0 11.129 -2.72727 0
 11.129 -1.81818 0 12.0968 -2.72727 0 12.0968 -1.81818 0
 12.0968 -2.72727 0 13.0645 -1.81818 0 12.0968 -1.81818 0
 13.0645 -1.81818 0 12.0968 -2.72727 0 13.0645 -2.72727 0
 14.0323 -2.72727 0 13.0645 -1.81818 0 13.0645 -2.72727 0
 13.0645 -1.81818 0 14.0323 -2.72727 0 14.0323 -1.81818 0
 14.0323 -2.72727 0 15 -1.81818 0 14.0323 -1.81818 0
 15 -1.81818 0 14.0323 -2.72727 0 15 -2.72727 0
 -14.0323 -1.81818 0 -15 -0.909091 0 -15 -1.81818 0
 -15 -0.909091 0 -14.0323 -1.81818 0 -14.0323 -0.909091 0
 -14.0323 -1.81818 0 -13.0645 -0.909091 0 -14.0323 -0.909091 0
 -13.0645 -0.909091 0 -14.0323 -1.81818 0 -13.0645 -1.81818 0
 -12.0968 -1.81818 0 -13.0645 -0.909091 0 -13.0645 -1.81818 0
 -13.0645 -0.909091 0 -12.0968 -1.81818 0 -12.0968 -0.909091 0
 -12.0968 -1.81818 0 -11.129 -0.909091 0 -12.0968 -0.909091 0
 -11.129 -0.909091 0 -12.0968 -1.81818 0 -11.129 -1.81818 0
 -10.1613 -1.81818 0 -11.129 -0.909091 0 -11.129 -1.81818 0
 -11.129 -0.909091 0 -10.1613 -1.81818 0 -10.1613 -0.909091 0
 -10.1613 -1.81818 0 -9.19355 -0.909091 0 -10.1613 -0.909091 0
 -9.19355 -0.909091 0 -10.1613 -1.81818 0 -9.19355 -1.81818 0
 -8.22581 -1.81818 0 -9.19355 -0.909091 0 -9.19355 -1.81818 0
 -9.19355 -0.909091 0 -8.22581 -1.81818 0 -8.22581 -0.909091 0
 -8.22581 -1.81818 0 -7.25806 -0.909091 0 -8.22581 -0.909091 0
 -7.25806 -0.909091 0 -8.22581 -1.81818 0 -7.25806 -1.81818 0
 -6.29032 -1.81818 0 -7.25806 -0.909091 0 -7.25806 -1.81818 0
 -7.25806 -0.909091 0 -6.29032 -1.81818 0 -6.29032 -0.909091 0
 -6.29032 -1.81818 0 -5.32258 -0.909091 0 -6.29032 -0.909091 0
 -5.32258 -0.909091 0 -6.29032 -1.81818 0 -5.32258 -1.81818 0
 -4.35484 -1.81818 0 -5.32258 -0.909091 0 -5.32258 -1.81818 0
 -5.32258 -0.909091 0 -4.35484 -1.81818 0 -4.35484 -0.909091 0
 -4.35484 -1.81818 0 -3.3871 -0.909091 0 -4.35484 -0.909091 0
 -3.3871 -0.909091 0 -4.35484 -1.81818 0 -3.3871 -1.81818 0
 -2.41935 -1.81818 0 -3.3871 -0.909091 0 -3.3871 -1.81818 0
 -3.3871 -0.909091 0 -2.41935 -1.81818 0 -2.41935 -0.909091 0
 -2.41935 -1.81818 0 -1.45161 -0.909091 0 -2.41935 -0.909091 0
 -1.45161 -0.909091 0 -2.41935 -1.81818 0 -1.45161 -1.81818 0
 -0.483871 -1.81818 0 -1.45161 -0.909091 0 -1.45161 -1.81818 0
 -1.45161 -0.909091 0 -0.483871 -1.81818 0 -0.483871 -0.909091 0
 -0.483871 -1.81818 0 0.483871 -0.909091 0 -0.483871 -0.909091 0
 0.483871 -0.909091 0 -0.483871 -1.81818 0 0.483871 -1.81818 0
 1.45161 -1.81818 0 0.483871 -0.909091 0 0.483871 -1.81818 0
 0.483871 -0.909091 0 1.45161 -1.81818 0 1.45161 -0.909091 0
 1.45161 -1.81818 0 2.41935 -0.909091 0 1.45161 -0.909091 0
 2.41935 -0.909091 0 1.45161 -1.81818 0 2.41935 -1.81818 0
 3.3871 -1.81818 0 2.41935 -0.909091 0 2.41935 -1.81818 0
 2.41935 -0.909091 0 3.3871 -1.81818 0 3.3871 -0.909091 0
 3.3871 -1.81818 0 4.35484 -0.909091 0 3.3871 -0.909091 0
 4.35484 -0.909091 0 3.3871 -1.81818 0 4.35484 -1.81818 0
 5.32258 -1.81818 0 4.35484 -0.909091 0 4.35484 -1.81818 0
 4.35484 -0.909091 0 5.32258 -1.81818 0 5.32258 -0.909091 0
 5.32258 -1.81818 0 6.29032 -0.909091 0 5.32258 -0.909091 0
 6.29032 -0.909091 0 5.32258 -1.81818 0 6.29032 -1.81818 0
 7.25806 -1.81818 0 6.29032 -0.909091 0 6.29032 -1.81818 0
 6.29032 -0.909091 0 7.25806 -1.81818 0 7.25806 -0.909091 0
 7.25806 -1.81818 0 8.22581 -0.909091 0 7.25806 -0.909091 0
 8.22581 -0.909091 0 7.25806 -1.81818 0 8.22581 -1.81818 0
 9.19355 -1.81818 0 8.22581 -0.909091 0 8.22581 -1.81818 0
 8.22581 -0.909091 0 9.19355 -1.81818 0 9.19355 -0.909091 0
 9.19355 -1.81818 0 10.1613 -0.909091 0 9.19355 -0.909091 0
 10.1613 -0.909091 0 9.19355 -1.81818 0 10.1613 -1.81818 0
 11.129 -1.81818 0 10.1613 -0.909091 0 10.1613 -1.81818 0
 10.1613 -0.909091 0 11.129 -1.81818 0 11.129 -0.909091 0
 11.129 -1.81818 0 12.0968 -0.909091 0 11.129 -0.909091 0
 12.0968 -0.909091 0 11.129 -1.81818 0 12.0968 -1.81818 0
 13.0645 -1.81818 0 12.0968 -0.909091 0 12.0968 -1.81818 0
 12.0968 -0.909091 0 13.0645 -1.81818 0 13.0645 -0.909091 0
 13.0645 -1.81818 0 14.0323 -0.909091 0 13.0645 -0.909091 0
 14.0323 -0.909091 0 13.0645 -1.81818 0 14.0323 -1.81818 0
 15 -1.81818 0 14.0323 -0.909091 0 14.0323 -1.81818 0
 14.0323 -0.909091 0 15 -1.81818 0 15 -0.909091 0
 -15 -0.909091 0 -14.0323 0 0 -15 0 0
 -14.0323 0 0 -15 -0.909091 0 -14.0323 -0.909091 0
 -13.0645 -0.909091 0 -14.0323 0 0 -14.0323 -0.909091 0
 -14.0323 0 0 -13.0645 -0.909091 0 -13.0645 0 0
 -13.0645 -0.909091 0 -12.0968 0 0 -13.0645 0 0
 -12.0968 0 0 -13.0645 -0.909091 0 -12.0968 -0.909091 0
 -11.129 -0.909091 0 -12.0968 0 0 -12.0968 -0.909091 0
 -12.0968 0 0 -11.129 -0.909091 0 -11.129 0 0
 -11.129 -0.909091 0 -10.1613 0 0 -11.129 0 0
 -10.1613 0 0 -11.129 -0.909091 0 -10.1613 -0.909091 0
 -9.19355 -0.909091 0 -10.1613 0 0 -10.1613 -0.909091 0
 -10.1613 0 0 -9.19355 -0.909091 0 -9.19355 0 0
 -9.19355 -0.909091 0 -8.22581 0 0 -9.19355 0 0
 -8.22581 0 0 -9.19355 -0.909091 0 -8.22581 -0.909091 0
 -7.25806 -0.909091 0 -8.22581 0 0 -8.22581 -0.909091 0
 -8.22581 0 0 -7.25806 -0.909091 0 -7.25806 0 0
 -7.25806 -0.909091 0 -6.29032 0 0 -7.25806 0 0
 -6.29032 0 0 -7.25806 -0.909091 0 -6.29032 -0.909091 0
 -5.32258 -0.909091 0 -6.29032 0 0 -6.29032 -0.909091 0
 -6.29032 0 0 -5.32258 -0.909091 0 -5.32258 0 0
 -5.32258 -0.909091 0 -4.35484 0 0 -5.32258 0 0
 -4.35484 0 0 -5.32258 -0.909091 0 -4.35484 -0.909091 0
 -3.3871 -0.909091 0 -4.35484 0 0 -4.35484 -0.909091 0
 -4.35484 0 0 -3.3871 -0.909091 0 -3.3871 0 0
 -3.3871 -0.909091 0 -2.41935 0 0 -3.3871 0 0
 -2.41935 0 0 -3.3871 -0.909091 0 -2.41935 -0.909091 0
 -1.45161 -0.909091 0 -2.41935 0 0 -2.41935 -0.909091 0
 -2.41935 0 0 -1.45161 -0.909091 0 -1.45161 0 0
 -1.45161 -0.909091 0 -0.483871 0 0 -1.45161 0 0
 -0.483871 0 0 -1.45161 -0.909091 0 -0.483871 -0.909091 0
 0.483871 -0.909091 0 -0.483871 0 0 -0.483871 -0.909091 0
 -0.483871 0 0 0.483871 -0.909091 0 0.483871 0 0
 0.483871 -0.909091 0 1.45161 0 0 0.483871 0 0
 1.45161 0 0 0.483871 -0.909091 0 1.45161 -0.909091 0
 2.41935 -0.909091 0 1.45161 0 0 1.45161 -0.909091 0
 1.45161 0 0 2.41935 -0.909091 0 2.41935 0 0
 2.41935 -0.909091 0 3.3871 0 0 2.41935 0 0
 3.3871 0 0 2.41935 -0.909091 0 3.3871 -0.909091 0
 4.35484 -0.909091 0 3.3871 0 0 3.3871 -0.909091 0
 3.3871 0 0 4.35484 -0.909091 0 4.35484 0 0
 4.35484 -0.909091 0 5.32258 0 0 4.35484 0 0
 5.32258 0 0 4.35484 -0.909091 0 5.32258 -0.909091 0
 6.29032 -0.909091 0 5.32258 0 0 5.32258 -0.909091 0
 5.32258 0 0 6.29032 -0.909091 0 6.29032 0 0
 6.29032 -0.909091 0 7.25806 0 0 6.29032 0 0
 7.25806 0 0 6.29032 -0.909091 0 7.25806 -0.909091 0
 8.22581 -0.909091 0 7.25806 0 0 7.25806 -0.909091 0
 7.25806 0 0 8.22581 -0.909091 0 8.22581 0 0
 8.22581 -0.909091 0 9.19355 0 0 8.22581 0 0
 9.19355 0 0 8.22581 -0.909091 0 9.19355 -0.909091 0
 10.1613 -0.909091 0 9.19355 0 0 9.19355 -0.909091 0
 9.19355 0 0 10.1613 -0.909091 0 10.1613 0 0
 10.1613 -0.909091 0 11.129 0 0 10.1613 0 0
 11.129 0 0 10.1613 -0.909091 0 11.129 -0.909091 0
 12.0968 -0.909091 0 11.129 0 0 11.129 -0.909091 0
 11.129 0 0 12.0968 -0.909091 0 12.0968 0 0
 12.0968 -0.909091 0 13.0645 0 0 12.0968 0 0
 13.0645 0 0 12.0968 -0.909091 0 13.0645 -0.909091 0
 14.0323 -0.909091 0 13.0645 0 0 13.0645 -0.909091 0
 13.0645 0 0 14.0323 -0.909091 0 14.0323 0 0
 14.0323 -0.909091 0 15 0 0 14.0323 0 0
 15 0 0 14.0323 -0.909091 0 15 -0.909091 0

CELLS 682 2728
 3 0 1 2
 3 3 4 5
 3 6 7 8
 3 9 10 11
 3 12 13 14
 3 15 16 17
 3 18 19 20
 3 21 22 23
 3 24 25 26
 3 27 28 29
 3 30 31 32
 3 33 34 35
 3 36 37 38
 3 39 40 41
 3 42 43 44
 3 45 46 47
 3 48 49 50
 3 51 52 53
 3 54 55 56
 3 57 58 59
 3 60 61 62
 3 63 64 65
 3 66 67 68
 3 69 70 71
 3 72 73 74
 3 75 76 77
 3 78 79 80
 3 81 82 83
 3 84 85 86
 3 87 88 89
 3 90 91 92
 3 93 94 95
 3 96 97 98
 3 99 100 101
 3 102 103 104
 3 105 106 107
 3 108 109 110
 3 111 112 113
 3 114 115 116
 3 117 118 119
 3 120 121 122
 3 123 124 125
 3 126 127 128
 3 129 130 131
 3 132 133 134
 3 135 136 137
 3 138 139 140
 3 141 142 143
 3 144 145 146
 3 147 148 149
 3 150 151 152
 3 153 154 155
 3 156 157 158
 3 159 160 161
 3 162 163 164
 3 165 166 167
 3 168 169 170
 3 171 172 173
 3 174 175 176
 3 177 178 179
 3 180 181 182
 3 183 184 185
 3 186 187 188
 3 189 190 191
 3 192 193 194
 3 195 196 197
 3 198 199 200
 3 201 202 203
 3 204 205 206
 3 207 208 209
 3 210 211 212
 3 213 214 215
 3 216 217 218
 3 219 220 221
 3 222 223 224
 3 225 226 227
 3 228 229 230
 3 231 232 233
 3 234 235 236
 3 237 238 239
 3 240 241 242
 3 243 244 245
 3 246 247 248
 3 249 250 251
 3 252 253 254
 3 255 256 257
 3 258 259 260
 3 261 262 263
 3 264 265 266
 3 267 268 269
 3 270 271 272
 3 273 274 275
 3 276 277 278
 3 279 280 281
 3 282 283 284
 3 285 286 287
 3 288 289 290
 3 291 292 293
 3 294 295 296
 3 297 298 299
 3 300 301 302
 3 303 304 305
 3 306 307 308
 3 309 310 311
 3 312 313 314
 3 315 316 317
 3 318 319 320
 3 321 322 323
 3 324 325 326
 3 327 328 329
 3 330 331 332
 3 333 334 335
 3 336 337 338
 3 339 340 341
 3 342 343 344
 3 345 346 347
 3 348 349 350
 3 351 352 353
 3 354 355 356
 3 357 358 359
 3 360 361 362
 3 363 364 365
 3 366 367 368
 3 369 370 371
 3 372 373 374
 3 375 376 377
 3 378 379 380
 3 381 382 383
 3 384 385 386
 3 387 388 389
 3 390 391 392
 3 393 394 395
 3 396 397 398
 3 399 400 401
 3 402 403 404
 3 405 406 407
 3 408 409 410
 3 411 412 413
 3 414 415 416
 3 417 418 419
 3 420 421 422
 3 423 424 425
 3 426 427 428
 3 429 430 431
 3 432 433 434
 3 435 436 437
 3 438 439 440
 3 441 442 443
 3 444 445 446
 3 447 448 449
 3 450 451 452
 3 453 454 455
 3 456 457 458
 3 459 460 461
 3 462 463 464
 3 465 466 467
 3 468 469 470
 3 471 472 473
 3 474 475 476
 3 477 478 479
 3 480 481 482
 3 483 484 485
 3 486 487 488
 3 489 490 491
 3 492 493 494
 3 495 496 497
 3 498 499 500
 3 501 502 503
 3 504 505 506
 3 507 508 509
 3 510 511 512
 3 513 514 515
 3 516 517 518
 3 519 520 521
 3 522 523 524
 3 525 526 527
 3 528 529 530
 3 531 532 533
 3 534 535 536
 3 537 538 539
 3 540 541 542
 3 543 544 545
 3 546 547 548
 3 549 550 551
 3 552 553 554
 3 555 556 557
 3 558 559 560
 3 561 562 563
 3 564 565 566
 3 567 568 569
 3 570 571 572
 3 573 574 575
 3 576 577 578
 3 579 580 581
 3 582 583 584
 3 585 586 587
 3 588 589 590
 3 591 592 593
 3 594 595 596
 3 597 598 599
 3 600 601 602
 3 603 604 605
 3 606 607 608
 3 609 610 611
 3 612 613 614
 3 615 616 617
 3 618 619 620
 3 621 622 623
 3 624 625 626
 3 627 628 629
 3 630 631 632
 3 633 634 635
 3 636 637 638
 3 639 640 641
 3 642 643 644
 3 645 646 647
 3 648 649 650
 3 651 652 653
 3 654 655 656
 3 657 658 659
 3 660 661 662
 3 663 664 665
 3 666 667 668
 3 669 670 671
 3 672 673 674
 3 675 676 677
 3 678 679 680
 3 681 682 683
 3 684 685 686
 3 687 688 689
 3 690 691 692
 3 693 694 695
 3 696 697 698
 3 699 700 701
 3 702 703 704
 3 705 706 707
 3 708 709 710
 3 711 712 713
 3 714 715 716
 3 717 718 719
 3 720 721 722
 3 723 724 725
 3 726 727 728
 3 729 730 731
 3 732 733 734
 3 735 736 737
 3 738 739 740
 3 741 742 743
 3 744 745 746
 3 747 748 749
 3 750 751 752
 3 753 754 755
 3 756 757 758
 3 759 760 761
 3 762 763 764
 3 765 766 767
 3 768 769 770
 3 771 772 773
 3 774 775 776
 3 777 778 779
 3 780 781 782
 3 783 784 785
 3 786 787 788
 3 789 790 791
 3 792 793 794
 3 795 796 797
 3 798 799 800
 3 801 802 803
 3 804 805 806
 3 807 808 809
 3 810 811 812
 3 813 814 815
 3 816 817 818
 3 819 820 821
 3 822 823 824
 3 825 826 827
 3 828 829 830
 3 831 832 833
 3 834 835 836
 3 837 838 839
 3 840 841 842
 3 843 844 845
 3 846 847 848
 3 849 850 851
 3 852 853 854
 3 855 856 857
 3 858 859 860
 3 861 862 863
 3 864 865 866
 3 867 868 869
 3 870 871 872
 3 873 874 875
 3 876 877 878
 3 879 880 881
 3 882 883 884
 3 885 886 887
 3 888 889 890
 3 891 892 893
 3 894 895 896
 3 897 898 899
 3 900 901 902
 3 903 904 905
 3 906 907 908
 3 909 910 911
 3 912 913 914
 3 915 916 917
 3 918 919 920
 3 921 922 923
 3 924 925 926
 3 927 928 929
 3 930 931 932
 3 933 934 935
 3 936 937 938
 3 939 940 941
 3 942 943 944
 3 945 946 947
 3 948 949 950
 3 951 952 953
 3 954 955 956
 3 957 958 959
 3 960 961 962
 3 963 964 965
 3 966 967 968
 3 969 970 971
 3 972 973 974
 3 975 976 977
 3 978 979 980
 3 981 982 983
 3 984 985 986
 3 987 988 989
 3 990 991 992
 3 993 994 995
 3 996 997 998
 3 999 1000 1001
 3 1002 1003 1004
 3 1005 1006 1007
 3 1008 1009 1010
 3 1011 1012 1013
 3 1014 1015 1016
 3 1017 1018 1019
 3 1020 1021 1022
 3 1023 1024 1025
 3 1026 1027 1028
 3 1029 1030 1031
 3 1032 1033 1034
 3 1035 1036 1037
 3 1038 1039 1040
 3 1041 1042 1043
 3 1044 1045 1046
 3 1047 1048 1049
 3 1050 1051 1052
 3 1053 1054 1055
 3 1056 1057 1058
 3 1059 1060 1061
 3 1062 1063 1064
 3 1065 1066 1067
 3 1068 1069 1070
 3 1071 1072 1073
 3 1074 1075 1076
 3 1077 1078 1079
 3 1080 1081 1082
 3 1083 1084 1085
 3 1086 1087 1088
 3 1089 1090 1091
 3 1092 1093 1094
 3 1095 1096 1097
 3 1098 1099 1100
 3 1101 1102 1103
 3 1104 1105 1106
 3 1107 1108 1109
 3 1110 1111 1112
 3 1113 1114 1115
 3 1116 1117 1118
 3 1119 1120 1121
 3 1122 1123 1124
 3 1125 1126 1127
 3 1128 1129 1130
 3 1131 1132 1133
 3 1134 1135 1136
 3 1137 1138 1139
 3 1140 1141 1142
 3 1143 1144 1145
 3 1146 1147 1148
 3 1149 1150 1151
 3 1152 1153 1154
 3 1155 1156 1157
 3 1158 1159 1160
 3 1161 1162 1163
 3 1164 1165 1166
 3 1167 1168 1169
 3 1170 1171 1172
 3 1173 1174 1175
 3 1176 1177 1178
 3 1179 1180 1181
 3 1182 1183 1184
 3 1185 1186 1187
 3 1188 1189 1190
 3 1191 1192 1193
 3 1194 1195 1196
 3 1197 1198 1199
 3 1200 1201 1202
 3 1203 1204 1205
 3 1206 1207 1208
 3 1209 1210 1211
 3 1212 1213 1214
 3 1215 1216 1217
 3 1218 1219 1220
 3 1221 1222 1223
 3 1224 1225 1226
 3 1227 1228 1229
 3 1230 1231 1232
 3 1233 1234 1235
 3 1236 1237 1238
 3 1239 1240 1241
 3 1242 1243 1244
 3 1245 1246 1247
 3 1248 1249 1250
 3 1251 1252 1253
 3 1254 1255 1256
 3 1257 1258 1259
 3 1260 1261 1262
 3 1263 1264 1265
 3 1266 1267 1268
 3 1269 1270 1271
 3 1272 1273 1274
 3 1275 1276 1277
 3 1278 1279 1280
 3 1281 1282 1283
 3 1284 1285 1286
 3 1287 1288 1289
 3 1290 1291 1292
 3 1293 1294 1295
 3 1296 1297 1298
 3 1299 1300 1301
 3 1302 1303 1304
 3 1305 1306 1307
 3 1308 1309 1310
 3 1311 1312 1313
 3 1314 1315 1316
 3 1317 1318 1319
 3 1320 1321 1322
 3 1323 1324 1325
 3 1326 1327 1328
 3 1329 1330 1331
 3 1332 1333 1334
 3 1335 1336 1337
 3 1338 1339 1340
 3 1341 1342 1343
 3 1344 1345 1346
 3 1347 1348 1349
 3 1350 1351 1352
 3 1353 1354 1355
 3 1356 1357 1358
 3 1359 1360 1361
 3 1362 1363 1364
 3 1365 1366 1367
 3 1368 1369 1370
 3 1371 1372 1373
 3 1374 1375 1376
 3 1377 1378 1379
 3 1380 1381 1382
 3 1383 1384 1385
 3 1386 1387 1388
 3 1389 1390 1391
 3 1392 1393 1394
 3 1395 1396 1397
 3 1398 1399 1400
 3 1401 1402 1403
 3 1404 1405 1406
 3 1407 1408 1409
 3 1410 1411 1412
 3 1413 1414 1415
 3 1416 1417 1418
 3 1419 1420 1421
 3 1422 1423 1424
 3 1425 1426 1427
 3 1428 1429 1430
 3 1431 1432 1433
 3 1434 1435 1436
 3 1437 1438 1439
 3 1440 1441 1442
 3 1443 1444 1445
 3 1446 1447 1448
 3 1449 1450 1451
 3 1452 1453 1454
 3 1455 1456 1457
 3 1458 1459 1460
 3 1461 1462 1463
 3 1464 1465 1466
 3 1467 1468 1469
 3 1470 1471 1472
 3 1473 1474 1475
 3 1476 1477 1478
 3 1479 1480 1481
 3 1482 1483 1484
 3 1485 1486 1487
 3 1488 1489 1490
 3 1491 1492 1493
 3 1494 1495 1496
 3 1497 1498 1499
 3 1500 1501 1502
 3 1503 1504 1505
 3 1506 1507 1508
 3 1509 1510 1511
 3 1512 1513 1514
 3 1515 1516 1517
 3 1518 1519 1520
 3 1521 1522 1523
 3 1524 1525 1526
 3 1527 1528 1529
 3 1530 1531 1532
 3 1533 1534 1535
 3 1536 1537 1538
 3 1539 1540 1541
 3 1542 1543 1544
 3 1545 1546 1547
 3 1548 1549 1550
 3 1551 1552 1553
 3 1554 1555 1556
 3 1557 1558 1559
 3 1560 1561 1562
 3 1563 1564 1565
 3 1566 1567 1568
 3 1569 1570 1571
 3 1572 1573 1574
 3 1575 1576 1577
 3 1578 1579 1580
 3 1581 1582 1583
 3 1584 1585 1586
 3 1587 1588 1589
 3 1590 1591 1592
 3 1593 1594 1595
 3 1596 1597 1598
 3 1599 1600 1601
 3 1602 1603 1604
 3 1605 1606 1607
 3 1608 1609 1610
 3 1611 1612 1613
 3 1614 1615 1616
 3 1617 1618 1619
 3 1620 1621 1622
 3 1623 1624 1625
 3 1626 1627 1628
 3 1629 1630 1631
 3 1632 1633 1634
 3 1635 1636 1637
 3 1638 1639 1640
 3 1641 1642 1643
 3 1644 1645 1646
 3 1647 1648 1649
 3 1650 1651 1652
 3 1653 1654 1655
 3 1656 1657 1658
 3 1659 1660 1661
 3 1662 1663 1664
 3 1665 1666 1667
 3 1668 1669 1670
 3 1671 1672 1673
 3 1674 1675 1676
 3 1677 1678 1679
 3 1680 1681 1682
 3 1683 1684 1685
 3 1686 1687 1688
 3 1689 1690 1691
 3 1692 1693 1694
 3 1695 1696 1697
 3 1698 1699 1700
 3 1701 1702 1703
 3 1704 1705 1706
 3 1707 1708 1709
 3 1710 1711 1712
 3 1713 1714 1715
 3 1716 1717 1718
 3 1719 1720 1721
 3 1722 1723 1724
 3 1725 1726 1727
 3 1728 1729 1730
 3 1731 1732 1733
 3 1734 1735 1736
 3 1737 1738 1739
 3 1740 1741 1742
 3 1743 1744 1745
 3 1746 1747 1748
 3 1749 1750 1751
 3 1752 1753 1754
 3 1755 1756 1757
 3 1758 1759 1760
 3 1761 1762 1763
 3 1764 1765 1766
 3 1767 1768 1769
 3 1770 1771 1772
 3 1773 1774 1775
 3 1776 1777 1778
 3 1779 1780 1781
 3 1782 1783 1784
 3 1785 1786 1787
 3 1788 1789 1790
 3 1791 1792 1793
 3 1794 1795 1796
 3 1797 1798 1799
 3 1800 1801 1802
 3 1803 1804 1805
 3 1806 1807 1808
 3 1809 1810 1811
 3 1812 1813 1814
 3 1815 1816 1817
 3 1818 1819 1820
 3 1821 1822 1823
 3 1824 1825 1826
 3 1827 1828 1829
 3 1830 1831 1832
 3 1833 1834 1835
 3 1836 1837 1838
 3 1839 1840 1841
 3 1842 1843 1844
 3 1845 1846 1847
 3 1848 1849 1850
 3 1851 1852 1853
 3 1854 1855 1856
 3 1857 1858 1859
 3 1860 1861 1862
 3 1863 1864 1865
 3 1866 1867 1868
 3 1869 1870 1871
 3 1872 1873 1874
 3 1875 1876 1877
 3 1878 1879 1880
 3 1881 1882 1883
 3 1884 1885 1886
 3 1887 1888 1889
 3 1890 1891 1892
 3 1893 1894 1895
 3 1896 1897 1898
 3 1899 1900 1901
 3 1902 1903 1904
 3 1905 1906 1907
 3 1908 1909 1910
 3 1911 1912 1913
 3 1914 1915 1916
 3 1917 1918 1919
 3 1920 1921 1922
 3 1923 1924 1925
 3 1926 1927 1928
 3 1929 1930 1931
 3 1932 1933 1934
 3 1935 1936 1937
 3 1938 1939 1940
 3 1941 1942 1943
 3 1944 1945 1946
 3 1947 1948 1949
 3 1950 1951 1952
 3 1953 1954 1955
 3 1956 1957 1958
 3 1959 1960 1961
 3 1962 1963 1964
 3 1965 1966 1967
 3 1968 1969 1970
 3 1971 1972 1973
 3 1974 1975 1976
 3 1977 1978 1979
 3 1980 1981 1982
 3 1983 1984 1985
 3 1986 1987 1988
 3 1989 1990 1991
 3 1992 1993 1994
 3 1995 1996 1997
 3 1998 1999 2000
 3 2001 2002 2003
 3 2004 2005 2006
 3 2007 2008 2009
 3 2010 2011 2012
 3 2013 2014 2015
 3 2016 2017 2018
 3 2019 2020 2021
 3 2022 2023 2024
 3 2025 2026 2027
 3 2028 2029 2030
 3 2031 2032 2033
 3 2034 2035 2036
 3 2037 2038 2039
 3 2040 2041 2042
 3 2043 2044 2045

CELL_TYPES 682
 5
 5
 5
 5
 5
 5
 5
 5
 5
 5
 5
 5
 5
 5
 5
 5
 5
 5
 5
 5
 5
 5
 5
 5
 5
 5
 5
 5
 5
 5
 5
 5
 5
 5
 5
 5
 5
 5
 5
 5
 5
 5
 5
 5
 5
 5
 5
 5
 5
 5
 5
 5
 5
 5
 5
 5
 5
 5
 5
 5
 5
 5
 5
 5
 5
 5
 5
 5
 5
 5
 5
 5
 5
 5
 5
 5
 5
 5
 5
 5
 5
 5
 5
 5
 5
 5
 5
 5
 5
 5
 5
 5
 5
 5
 5
 5
 5
 5
 5
 5
 5
 5
 5
 5
 5
 5
 5
 5
 5
 5
 5
 5
 5
 5
 5
 5
 5
 5
 5
 5
 5
 5
 5
 5
 5
 5
 5
 5
 5
 5
 5
 5
 5
 5
 5
 5
 5
 5
 5
 5
 5
 5
 5
 5
 5
 5
 5
 5
 5
 5
 5
 5
 5
 5
 5
 5
 5
 5
 5
 5
 5
 5
 5
 5
 5
 5
 5
 5
 5
 5
 5
 5
 5
 5
 5
 5
 5
 5
 5
 5
 5
 5
 5
 5
 5
 5
 5
 5
 5
 5
 5
 5
 5
 5
 5
 5
 5
 5
 5
 5
 5
 5
 5
 5
 5
 5
 5
 5
 5
 5
 5
 5
 5
 5
 5
 5
 5
 5
 5
 5
 5
 5
 5
 5
 5
 5
 5
 5
 5
 5
 5
 5
 5
 5
 5
 5
 5
 5
 5
 5
 5
 5
 5
 5
 5
 5
 5
 5
 5
 5
 5
 5
 5
 5
 5
 5
 5
 5
 5
 5
 5
 5
 5
 5
 5
 5
 5
 5
 5
 5
 5
 5
 5
 5
 5
 5
 5
 5
 5
 5
 5
 5
 5
 5
 5
 5
 5
 5
 5
 5
 5
 5
 5
 5
 5
 5
 5
 5
 5
 5
 5
 5
 5
 5
 5
 5
 5
 5
 5
 5
 5
 5
 5
 5
 5
 5
 5
 5
 5
 5
 5
 5
 5
 5
 5
 5
 5
 5
 5
 5
 5
 5
 5
 5
 5
 5
 5
 5
 5
 5
 5
 5
 5
 5
 5
 5
 5
 5
 5
 5
 5
 5
 5
 5
 5
 5
 5
 5
 5
 5
 5
 5
 5
 5
 5
 5
 5
 5
 5
 5
 5
 5
 5
 5
 5
 5
 5
 5
 5
 5
 5
 5
 5
 5
 5
 5
 5
 5
 5
 5
 5
 5
 5
 5
 5
 5
 5
 5
 5
 5
 5
 5
 5
 5
 5
 5
 5
 5
 5
 5
 5
 5
 5
 5
 5
 5
 5
 5
 5
 5
 5
 5
 5
 5
 5
 5
 5
 5
 5
 5
 5
 5
 5
 5
 5
 5
 5
 5
 5
 5
 5
 5
 5
 5
 5
 5
 5
 5
 5
 5
 5
 5
 5
 5
 5
 5
 5
 5
 5
 5
 5
 5
 5
 5
 5
 5
 5
 5
 5
 5
 5
 5
 5
 5
 5
 5
 5
 5
 5
 5
 5
 5
 5
 5
 5
 5
 5
 5
 5
 5
 5
 5
 5
 5
 5
 5
 5
 5
 5
 5
 5
 5
 5
 5
 5
 5
 5
 5
 5
 5
 5
 5
 5
 5
 5
 5
 5
 5
 5
 5
 5
 5
 5
 5
 5
 5
 5
 5
 5
 5
 5
 5
 5
 5
 5
 5
 5
 5
 5
 5
 5
 5
 5
 5
 5
 5
 5
 5
 5
 5
 5
 5
 5
 5
 5
 5
 5
 5
 5
 5
 5
 5
 5
 5
 5
 5
 5
 5
 5
 5
 5
 5
 5
 5
 5
 5
 5
 5
 5
 5
 5
 5
 5
 5
 5
 5
 5
 5
 5
 5
 5
 5
 5
 5
 5
 5
 5
 5
 5
 5
 5
 5
 5
 5
 5
 5
 5
 5
 5
 5
 5
 5
 5
 5
 5
 5
 5
 5
 5
 5
 5
 5
 5
 5
 5
 5
 5
 5
 5
 5
 5
 5
 5
 5
 5
 5
 5
 5
 5
 5
 5
 5
 5
 5
 5
 5
 5
 5
 5
 5
 5
 5
 5
 5
 5
 5
 5
 5
 5
 5
 5
 5
 5
 5
 5
 5
 5
 5
 5
 5
 5
 5
 5
 5
 5
 5
 5
 5
 5
 5
 5
 5


POINT_DATA 2046


SCALARS Von_Mises_Stresses float 1
LOOKUP_TABLE default
 120510 144496 41957.1 116552 120414 163178 126679 123789 109521 137266 108370 130610 152820 138635 131429 150232 140905 170782 189413 150945 163657 191914 146997 169010 195137 191236 169148 193186 193110 225603 257024 193926 222717 258163 191693 223656 259213 255529 223644 256459 258377 297196 334003 258177 294582 333772 257294 298840 343048 329792 298881 339973 333215 371288 403934 343448 368811 402392 344436 390498 438312 398154 390614 436555 400058 426160 446161 441671 424489 445252 443722 483340 524679 442245 483462 525022 440123 448998 456986 529605 448403 459656 530781 550311 572244 458468 550374 573319 452813 451250 454646 574438 451195 460451 573835 565372 559487 460830 565350 559235 456181 450993 448913 556090 451231 453171 555105 522014 490769 455260 521917 488917 454656 440331 424071 483681 441438 423960 484352 438331 393652 427744 438202 391925 429353 400201 368959 387495 402349 365938 390117 343249 298360 370256 343168 298315 371263 332549 295400 295795 335088 292066 298859 258649 221580 295602 258669 223168 295195 257237 223863 221996 259383 221350 224250 193854 166764 224057 194009 168921 222931 191989 165739 168306 192817 162943 170236 149824 127916 168255 150491 129725 167331 140316 116789 127336 135412 108935 133167 114913 76803.5 147069 122256 60825.5 169565 128981 122765 17974.3 38184.7 108635 4636.54 79730.5 111102 109828 78796 108123 111853 130520 148717 112090 131339 151491 109212 128232 145483 149239 128094 144284 150458 169049 191993 146028 169187 194560 143205 166150 194232 192337 166194 192564 194140 223698 257179 195178 223686 259306 192926 230382 274546 255783 230506 273086 258095 298938 343356 276912 298979 344550 275812 331117 392571 340387 331278 392383 342391 390603 441691 396618 390719 441477 397621 462992 531489 438326 463052 531760 439466 483387 529349 535084 483508 527942 538499 590517 642069 526589 590463 640681 527400 550289 574704 642212 550352 573148 646409 659465 670256 572954 659442 666625 574245 565332 557788 666109 565311 556797 668707 635322 600377 557465 635378 596253 559094 522024 486487 593761 521926 485630 594098 530567 468278 487865 530578 466000 488769 438412 390241 462063 438284 388666 461774 394644 332144 392525 394517 332311 391999 343362 297828 328122 343281 295547 329005 275994 229427 299560 275837 231218 297810 258727 223370 227957 258747 221223 229694 194142 164652 224046 194054 167245 221576 193898 169633 165204 194053 168104 166649 144743 126450 169843 144720 129596 166635 149868 131713 127524 150534 130259 128884 110721 80741.5 133467 111206 80274 130862 113957 50524.3 82234.5 121295 34405.8 83745.5 20608.8 55292.2 24428.7 56205.3 58846.7 12835.9 80053.6 111313 52718.3 79119.4 109429 53792.5 80740 99183 109522 80428.2 98496.5 110471 128169 143820 100246 128031 146079 98253.4 116059 137596 143985 116006 136622 144950 166198 192756 139261 166241 195477 136708 166300 204713 191988 166351 203709 193389 230462 274910 207838 230585 277582 205395 258426 321634 272840 258592 322243 273693 331164 395635 326962 331325 397129 325833 403732 487875 393141 403897 489734 393081 462982 536132 493093 463042 534737 495587 576846 657418 533257 576820 656944 533981 590548 645601 658206 590494 641531 664595 711494 753028 641576 711408 748153 644663 659559 670420 748298 659536 666360 754759 742366 723828 666283 742400 716796 670732 635392 596979 716242 635447 595129 718934 653633 584988 595584 653721 580284 598547 530566 463360 578022 530576 463319 576839 490277 406356 466117 490200 405950 465904 394655 328634 401686 394528 328323 400152 324956 258253 333012 324760 260284 330713 276066 228720 255636 275910 227451 256011 205875 165597 231710 205767 168170 228943 194207 165922 164788 194118 164662 165953 137274 115320 167340 137267 117747 164748 144735 128191 115608 144712 127389 116354 98755.4 80317 128864 98898 81234.4 127553 110439 80266.9 80564.5 110923 78749.3 81322.7 54846.7 44276.5 71621.5 54894.1 54854.8 77643 22844.9 49682.9 74046.1 56910.7 49638.8 65517.5 44755.2 51440.6 56325.6 44771.9 53071.6 55309.1 80740.5 98418.6 51606.5 80428.7 98742.5 51212 66695.5 84486.1 98375.4 66587.8 84092.6 98986.2 116039 136623 86037.9 115985 138940 84188.8 106469 137300 136156 106425 136342 137176 166377 204595 140268 166428 207951 137410 181313 238443 203077 181390 238519 203841 258523 324080 244147 258688 327495 241092 318933 407741 321964 319197 410500 321206 403715 492975 415391 403880 493535 415166 516894 620176 490659 517034 622460 489707 576793 662792 624121 576766 658252 630410 714059 791705 658667 713934 788178 660922 711563 755629 787854 711477 748846 797814 820123 834789 749232 820077 825695 755261 742474 722140 825902 742508 717785 832645 783097 726473 716955 783216 717503 723246 653636 579827 717218 653725 579518 717438 621293 522145 580481 621317 519307 582478 490214 400683 515904 490137 401936 512630 412907 319408 406535 412646 321606 404085 325006 255148 315925 324811 255073 314511 241288 180918 260628 241108 184073 257012 205978 165286 179137 205870 164215 179886 137441 106451 168068 137440 108849 165175 137309 116126 105960 137302 115329 106709 83983.2 66665.6 117071 84061 67817.1 115542 98692.1 80821.9 67023.9 98834.6 80381.7 66921.6 51686.2 41166.1 78082 51791.2 42859.9 79536.6 55021.8 47501.1 47137.1 55069.1 57019.4 40565.8 74767.2 37204.4 74375.8 79904 44108.4 66063.2 44822.6 49357.6 43189.2 44839.5 49506.5 40440.8 33478.8 38567.1 52444.8 33455.4 40035.5 51847.7 66671.4 83805.5 39915.2 66563.6 84918.7 39399.9 53110 75446.7 83937.5 53040.3 75019.5 84618.3 106491 136674 77628.2 106447 139692 75552.1 106844 153113 135893 106781 152225 136967 181440 239420 157819 181516 244096 153886 220506 304103 237610 220672 305548 237544 319018 412342 312817 319283 416123 309183 418220 534546 410125 418647 539141 408098 516779 627361 543348 516919 624839 546456 664574 776269 624250 664568 776743 623958 714040 797389 776005 713916 788753 788158 853349 910824 790729 853196 902591 795868 820259 835622 901933 820213 828013 913561 895533 871117 827157 895587 857878 836151 783179 721984 859292 783298 719715 863207 773059 674776 718148 773229 666480 724426 621182 514727 665058 621207 516559 661382 541245 420027 520157 540974 421262 518923 412883 313840 414845 412623 315031 411434 309214 220049 321972 308860 224360 317164 241428 179208 217525 241248 178446 217664 153854 107148 183710 153842 110221 179757 137518 106668 106143 137517 105695 107032 74612.1 53997.3 108061 74692.4 55149.6 106007 83962.2 67107.9 53902 84039.9 66828.3 53602.9 38907.3 32451.1 66175 38952.9 33191.6 65905.6 51744.5 42624.2 34397.5 51849.5 46161.4 30681.8 43811.8 72644.4 42215.9 43811.8 79499.4 37897.6 74677.3 38691.4 73641 79199.1 43469 68593.7 45495.8 31113.7 44430 45420.6 34235.2 40066.3 33502.6 37997.1 35011.9 33479.2 38691.6 34398.1 30496.8 32752.3 40124.7 30515.2 34729.3 39436.7 53077.2 74688.3 34767.8 53007.4 76493.3 34944.2 46218.1 75985.4 75102.6 46147.4 75553.4 75894 106898 152292 79130.4 106835 156841 76079 122195 191275 151661 122096 190410 152845 220708 306162 198517 220874 312850 192578 291034 408434 303866 291452 411570 303078 418236 542117 420821 418663 544777 417749 560866 700183 539455 561396 705597 536942 664393 785579 707116 664387 777192 718141 831543 933255 780691 831301 929611 782389 853464 915517 926497 853311 904508 943381 967493 989845 906144 967450 976133 914677 895704 868619 977510 895758 863471 986453 921095 849901 859525 921264 833497 870851 773031 666451 835708 773200 667562 834054 706282 566221 667799 706258 563116 670658 541078 411370 556935 540807 413518 551327 417085 290602 422191 416380 296393 416261 309390 216843 286711 309037 216331 286183 192830 122330 223694 192758 127107 217770 153991 107215 121277 153979 106015 122336 74600 48358.6 109147 74722.9 49555.4 106056 74604.7 54212.6 48015.5 74685 54041.1 47296.2 32765.2 31558.9 53921.8 32767.2 31269.8 53035.1 38887.5 32378 31475 38933.1 34538.1 28754 34777.7 43621.2 32444.7 34810.7 45566.5 30480.4 43863.5 71416.6 44223.7 43863.5 78683.4 39234.5 73729.6 41512.4 72016.1 58701.3 43918.8 66102.9 45574.2 33532.4 45918.1 45499.1 35153.1 45290.5 45061.9 40651.6 35446.7 44992.4 42766.2 32702.2 30491.6 33492.3 43183.8 30510.1 33980.9 43669 36779.2 31814.2 35375.9 36853.8 35117.5 33712.8 46161.7 74622.9 34817.2 46091 77625.3 35764.4 44001.6 86782.5 76038.9 43907 86403.6 76900.8 122289 189483 91502.7 122190 196838 86017.7 155028 256560 189305 154857 255354 191005 291375 412377 268121 291793 421878 259000 401674 559671 408676 402796 565370 407662 560655 712054 575489 561185 709282 577832 744802 888150 709617 744837 891440 707497 831548 943448 886545 831306 928934 908874 980510 1.05087e+06 936393 980378 1.04319e+06 939932 967692 991025 1.04063e+06 967649 983113 1.05475e+06 1.02716e+06 1.00818e+06 980150 1.02715e+06 987808 992460 921289 842454 993929 921458 842365 996106 885492 759086 835121 885893 743838 846490 705999 554137 741899 705974 556662 734526 573938 402363 565562 572870 408840 559936 417241 284959 394641 416537 284141 393380 259572 154587 295631 259242 162696 286292 193084 122883 153814 193012 121259 155233 84480.9 47249.1 125355 84711.6 49337.8 120278 74582.9 48278.7 47407 74705.8 48653.1 45800 31817.2 39210.7 48340.9 31751.7 37929.5 47015.4 32727.2 29836.8 38359.6 32729 32244.9 35432 42632.5 45255.6 31057.5 42613.4 45499.4 30262.5 34784.7 41764.7 44015.6 34817.7 45490.9 42495.2 45582.9 56006.1 45972.4 45769.5 58752.7 43197 72498.9 45795.7 38165.5 57054.5 45901.5 38396.2 42426.3 49412.2 45676.6 42141.8 50158.4 43003.1 45098.2 42878.2 51465.3 45028.6 43314.4 51233 53975.6 48403.7 43546 53961.3 50675.2 40896.2 36819.5 33926.7 51017.6 36894.3 34163.1 51997.6 39822.9 24639.6 36118.6 39945.4 30445.7 32578.8 43884.6 83591.4 29898.7 43790.2 88901.8 31603.7 40830.3 105377 87515.2 40629.2 104973 88602.7 155209 252623 112756 155038 265392 102149 205309 356481 252468 205029 353794 256177 402200 568050 375964 403321 579921 363110 568308 758865 563775 570893 768318 563002 744334 904574 770904 744368 888231 793830 925518 1.03466e+06 903289 924872 1.0364e+06 899507 980889 1.0578e+06 1.02489e+06 980757 1.04651e+06 1.04642e+06 1.05158e+06 1.08556e+06 1.05143e+06 1.05176e+06 1.07484e+06 1.05536e+06 1.02735e+06 1.00318e+06 1.07927e+06 1.02734e+06 1.0046e+06 1.0819e+06 1.01253e+06 955118 991125 1.01234e+06 924557 1.00916e+06 885693 746262 935249 886094 749480 930427 776116 573704 747515 776051 573826 749297 573712 391930 555897 572644 389108 552812 363810 204717 409579 362273 219062 394016 260128 156474 203419 259798 153767 205832 101032 44242.9 159338 101585 49197.5 150570 84417.2 47388.7 46633.7 84648 48760.2 43836.3 25556.4 43134.7 47634 25369.4 41025.5 45279.6 31794.3 35669.7 41372.5 31728.3 39046.6 37707.6 50469.8 54671.6 37937 50426.6 54547.3 37895.3 42673.8 43016.5 53620.1 42654.8 45277.5 52207.8 50870.8 42580.7 45460.3 50955.9 42235.1 44986.9 45694.4 52750.8 41042.4 45880.8 56658.6 40713.9 38017.6 33945.9 36172.6 16631.9 33629.8 35090 42550.2 50896.2 33084.6 42266 50930.9 33521.1 47795.2 55011.6 50982.1 47701.1 55609.1 49323.9 54044.8 50741.2 57072.9 54030.5 51164.7 56270.7 58701.4 51954.4 51158.7 58652.1 53254.5 47997.6 39972.9 28643.5 54910.7 40095.3 29005 55875.5 42422.6 12624.4 31881.8 42478.7 16667.7 25049.6 40539.4 97829.4 17062.1 40339.2 107212 23571 28910.6 121843 107356 28271.2 121124 109306 205808 348625 135185 205528 373644 113624 273777 510778 345162 274133 504506 356665 568345 776455 539997 570931 778506 532538 791773 937336 786169 789969 942231 780823 926394 1.05027e+06 918650 925749 1.03024e+06 958234 973082 1.03179e+06 1.05221e+06 973766 1.03923e+06 1.03937e+06 1.0515e+06 1.08526e+06 1.03288e+06 1.05168e+06 1.09117e+06 1.03356e+06 997827 1.01397e+06 1.08397e+06 997626 998173 1.08914e+06 1.01306e+06 943960 1.01722e+06 1.01287e+06 957970 1.00439e+06 920643 814195 925828 923227 774629 952177 775291 557594 771615 775227 551674 760408 535856 278172 582557 528832 302644 556971 365114 209041 268914 363576 202511 275458 111925 27380.1 211714 113833 39240.3 195318 100805 46881.3 36605.8 101359 49207 35194.5 17911.3 45129.3 45834.3 17671.2 41943.2 41275.8 25617.8 37112.7 40415.1 25429.4 41915.3 38726.1 54652.4 59071.2 41174.7 54660.4 59334.9 41244.2 50582.2 52043.5 57758.5 50539 54221.9 56801.8 56237.8 47596.7 54468.8 56317.8 48332.3 53867.5 50927.1 40786.1 47291.5 51012.2 42533.4 46885.9 33227.1 20103.4 41286.1 33482.9 16510.6 43511.5 36174.5 33834.1 2265.42 15122.7 30960.2 5958.92 18492.4 35318.4 33726.1 18591.7 35262.2 33079.5 47840.2 55175.5 36382.9 47746.1 56884.5 33943.8 49115.8 60076.4 56301.9 49011.2 59370.2 54855.6 58837.9 54217.5 62681.8 58788.6 55666 60227.5 72038.1 77986.7 53606.4 71923 74405.3 50945.4 42750 19771 79786.8 42806.3 18787.7 79763.6 83815.9 74014.2 17567.5 83624.3 59572.9 9256.27 27972.5 103779 65435.7 27333.7 119763 73923.7 55538.5 114597 126779 54068.7 106157 132906 275599 495684 143115 275954 552676 104272 382685 699515 492278 393428 722096 521164 791109 967829 709726 789306 921954 780197 831553 772925 987460 801460 851201 940355 973284 1.03815e+06 826700 973968 1.04912e+06 795629 826926 783351 1.05686e+06 822824 844260 1.02812e+06 997931 1.0005e+06 853330 997730 1.0359e+06 802442 801989 789124 1.01218e+06 812872 799490 1.01652e+06 924464 800836 861011 927059 819230 829027 745124 406413 791465 775396 430545 778059 537759 290400 352235 530733 262104 383855 93929 39148.3 288646 94183 23010.7 250796 111124 41700.5 25640.3 113035 41161.7 59687.6 76259.5 82919.6 31520.5 76846.1 79932.6 24771.8 18451.6 36953.6 73677.7 18210.6 40574.5 80822.4 80225.9 71302 43366 80404.4 72842.1 42861.1 54860.7 56243.2 68500 54868.6 58302.3 70201.3 61094.2 47831 59613.4 61196.1 50663.2 57771.4 56317.5 47001.7 48380.7 56397.5 47808.5 48718.2 35177.2 17629.9 47423.1 35250.1 18429.2 46699.3 33296.2 17829 20325.4 33551.7 15612 19512.2 1132.16 2474.81 2164.1 2580.72 6042.08 5661.26 18413 32107.8 6720.99 18512.3 36193.2 3032.25 17461.8 42552.5 36558.5 19059.9 43597.9 35899 49264.8 59463.4 48141.6 49160.2 63549.4 45207.1 72144.9 102613 60074 74404.9 101296 59766.7 72173.3 79231.2 107870 72058.1 82492.5 106697 135696 166517 75654.8 138976 162778 77583.8 84085.6 75529 173351 83894.7 75993.5 173678 200250 226022 60960.9 206928 216640 70412.6 56466.3 67402.8 241445 55205.8 89849.4 250682 267554 266394 147297 301161 111532 177600 388304 653731 85023.2 399034 797990 177384 660578 325785 793736 415092 729205 670561 851088 699546 672059 821468 859942 354808 648788 304640 814430 592883 599457 697807 843796 691221 598290 839783 837546 338844 699243 269708 861983 641048 535593 749238 814098 690958 556692 824785 842896 290718 705884 173443 906742 611381 387385 864543 766453 490869 567587 796652 338786 442109 370002 248377 422004 317951 178597 297469 88769.9 62668.4 170861 89030.4 18043.8 264955 246248 205642 50479 236286 202856 54908.4 76452.1 80616.8 188392 77044.7 75462.1 198289 172765 139290 85606 168577 139965 82766 80375.8 70038.3 131909 80554.5 69359.8 134550 106021 74914.5 74337.7 103432 76792.8 70648.2 61228.1 48429.9 71262.5 61330 49292.7 71560.9 44722.8 19250 51183.6 42698.4 23817.9 46694.8 35310.2 20660.3 20774.6 35383.1 19857.2 17832.2 1500.94 4823.19 16215.3 1384.79 4540.72 15695 1114.32
