# vtk DataFile Version 2.0
Exported by getfem++
ASCII
DATASET UNSTRUCTURED_GRID
POINTS 2046 float
 -15 -10 0 -14.0323 -9.09091 0 -15 -9.09091 0
 -14.0323 -9.09091 0 -15 -10 0 -14.0323 -10 0
 -13.0645 -10 0 -14.0323 -9.09091 0 -14.0323 -10 0
 -14.0323 -9.09091 0 -13.0645 -10 0 -13.0645 -9.09091 0
 -13.0645 -10 0 -12.0968 -9.09091 0 -13.0645 -9.09091 0
 -12.0968 -9.09091 0 -13.0645 -10 0 -12.0968 -10 0
 -11.129 -10 0 -12.0968 -9.09091 0 -12.0968 -10 0
 -12.0968 -9.09091 0 -11.129 -10 0 -11.129 -9.09091 0
 -11.129 -10 0 -10.1613 -9.09091 0 -11.129 -9.09091 0
 -10.1613 -9.09091 0 -11.129 -10 0 -10.1613 -10 0
 -9.19355 -10 0 -10.1613 -9.09091 0 -10.1613 -10 0
 -10.1613 -9.09091 0 -9.19355 -10 0 -9.19355 -9.09091 0
 -9.19355 -10 0 -8.22581 -9.09091 0 -9.19355 -9.09091 0
 -8.22581 -9.09091 0 -9.19355 -10 0 -8.22581 -10 0
 -7.25806 -10 0 -8.22581 -9.09091 0 -8.22581 -10 0
 -8.22581 -9.09091 0 -7.25806 -10 0 -7.25806 -9.09091 0
 -7.25806 -10 0 -6.29032 -9.09091 0 -7.25806 -9.09091 0
 -6.29032 -9.09091 0 -7.25806 -10 0 -6.29032 -10 0
 -5.32258 -10 0 -6.29032 -9.09091 0 -6.29032 -10 0
 -6.29032 -9.09091 0 -5.32258 -10 0 -5.32258 -9.09091 0
 -5.32258 -10 0 -4.35484 -9.09091 0 -5.32258 -9.09091 0
 -4.35484 -9.09091 0 -5.32258 -10 0 -4.35484 -10 0
 -3.3871 -10 0 -4.35484 -9.09091 0 -4.35484 -10 0
 -4.35484 -9.09091 0 -3.3871 -10 0 -3.3871 -9.09091 0
 -3.3871 -10 0 -2.41935 -9.09091 0 -3.3871 -9.09091 0
 -2.41935 -9.09091 0 -3.3871 -10 0 -2.41935 -10 0
 -1.45161 -10 0 -2.41935 -9.09091 0 -2.41935 -10 0
 -2.41935 -9.09091 0 -1.45161 -10 0 -1.45161 -9.09091 0
 -1.45161 -10 0 -0.483871 -9.09091 0 -1.45161 -9.09091 0
 -0.483871 -9.09091 0 -1.45161 -10 0 -0.483871 -10 0
 0.483871 -10 0 -0.483871 -9.09091 0 -0.483871 -10 0
 -0.483871 -9.09091 0 0.483871 -10 0 0.483871 -9.09091 0
 0.483871 -10 0 1.45161 -9.09091 0 0.483871 -9.09091 0
 1.45161 -9.09091 0 0.483871 -10 0 1.45161 -10 0
 2.41935 -10 0 1.45161 -9.09091 0 1.45161 -10 0
 1.45161 -9.09091 0 2.41935 -10 0 2.41935 -9.09091 0
 2.41935 -10 0 3.3871 -9.09091 0 2.41935 -9.09091 0
 3.3871 -9.09091 0 2.41935 -10 0 3.3871 -10 0
 4.35484 -10 0 3.3871 -9.09091 0 3.3871 -10 0
 3.3871 -9.09091 0 4.35484 -10 0 4.35484 -9.09091 0
 4.35484 -10 0 5.32258 -9.09091 0 4.35484 -9.09091 0
 5.32258 -9.09091 0 4.35484 -10 0 5.32258 -10 0
 6.29032 -10 0 5.32258 -9.09091 0 5.32258 -10 0
 5.32258 -9.09091 0 6.29032 -10 0 6.29032 -9.09091 0
 6.29032 -10 0 7.25806 -9.09091 0 6.29032 -9.09091 0
 7.25806 -9.09091 0 6.29032 -10 0 7.25806 -10 0
 8.22581 -10 0 7.25806 -9.09091 0 7.25806 -10 0
 7.25806 -9.09091 0 8.22581 -10 0 8.22581 -9.09091 0
 8.22581 -10 0 9.19355 -9.09091 0 8.22581 -9.09091 0
 9.19355 -9.09091 0 8.22581 -10 0 9.19355 -10 0
 10.1613 -10 0 9.19355 -9.09091 0 9.19355 -10 0
 9.19355 -9.09091 0 10.1613 -10 0 10.1613 -9.09091 0
 10.1613 -10 0 11.129 -9.09091 0 10.1613 -9.09091 0
 11.129 -9.09091 0 10.1613 -10 0 11.129 -10 0
 12.0968 -10 0 11.129 -9.09091 0 11.129 -10 0
 11.129 -9.09091 0 12.0968 -10 0 12.0968 -9.09091 0
 12.0968 -10 0 13.0645 -9.09091 0 12.0968 -9.09091 0
 13.0645 -9.09091 0 12.0968 -10 0 13.0645 -10 0
 14.0323 -10 0 13.0645 -9.09091 0 13.0645 -10 0
 13.0645 -9.09091 0 14.0323 -10 0 14.0323 -9.09091 0
 14.0323 -10 0 15 -9.09091 0 14.0323 -9.09091 0
 15 -9.09091 0 14.0323 -10 0 15 -10 0
 -14.0323 -9.09091 0 -15 -8.18182 0 -15 -9.09091 0
 -15 -8.18182 0 -14.0323 -9.09091 0 -14.0323 -8.18182 0
 -14.0323 -9.09091 0 -13.0645 -8.18182 0 -14.0323 -8.18182 0
 -13.0645 -8.18182 0 -14.0323 -9.09091 0 -13.0645 -9.09091 0
 -12.0968 -9.09091 0 -13.0645 -8.18182 0 -13.0645 -9.09091 0
 -13.0645 -8.18182 0 -12.0968 -9.09091 0 -12.0968 -8.18182 0
 -12.0968 -9.09091 0 -11.129 -8.18182 0 -12.0968 -8.18182 0
 -11.129 -8.18182 0 -12.0968 -9.09091 0 -11.129 -9.09091 0
 -10.1613 -9.09091 0 -11.129 -8.18182 0 -11.129 -9.09091 0
 -11.129 -8.18182 0 -10.1613 -9.09091 0 -10.1613 -8.18182 0
 -10.1613 -9.09091 0 -9.19355 -8.18182 0 -10.1613 -8.18182 0
 -9.19355 -8.18182 0 -10.1613 -9.09091 0 -9.19355 -9.09091 0
 -8.22581 -9.09091 0 -9.19355 -8.18182 0 -9.19355 -9.09091 0
 -9.19355 -8.18182 0 -8.22581 -9.09091 0 -8.22581 -8.18182 0
 -8.22581 -9.09091 0 -7.25806 -8.18182 0 -8.22581 -8.18182 0
 -7.25806 -8.18182 0 -8.22581 -9.09091 0 -7.25806 -9.09091 0
 -6.29032 -9.09091 0 -7.25806 -8.18182 0 -7.25806 -9.09091 0
 -7.25806 -8.18182 0 -6.29032 -9.09091 0 -6.29032 -8.18182 0
 -6.29032 -9.09091 0 -5.32258 -8.18182 0 -6.29032 -8.18182 0
 -5.32258 -8.18182 0 -6.29032 -9.09091 0 -5.32258 -9.09091 0
 -4.35484 -9.09091 0 -5.32258 -8.18182 0 -5.32258 -9.09091 0
 -5.32258 -8.18182 0 -4.35484 -9.09091 0 -4.35484 -8.18182 0
 -4.35484 -9.09091 0 -3.3871 -8.18182 0 -4.35484 -8.18182 0
 -3.3871 -8.18182 0 -4.35484 -9.09091 0 -3.3871 -9.09091 0
 -2.41935 -9.09091 0 -3.3871 -8.18182 0 -3.3871 -9.09091 0
 -3.3871 -8.18182 0 -2.41935 -9.09091 0 -2.41935 -8.18182 0
 -2.41935 -9.09091 0 -1.45161 -8.18182 0 -2.41935 -8.18182 0
 -1.45161 -8.18182 0 -2.41935 -9.09091 0 -1.45161 -9.09091 0
 -0.483871 -9.09091 0 -1.45161 -8.18182 0 -1.45161 -9.09091 0
 -1.45161 -8.18182 0 -0.483871 -9.09091 0 -0.483871 -8.18182 0
 -0.483871 -9.09091 0 0.483871 -8.18182 0 -0.483871 -8.18182 0
 0.483871 -8.18182 0 -0.483871 -9.09091 0 0.483871 -9.09091 0
 1.45161 -9.09091 0 0.483871 -8.18182 0 0.483871 -9.09091 0
 0.483871 -8.18182 0 1.45161 -9.09091 0 1.45161 -8.18182 0
 1.45161 -9.09091 0 2.41935 -8.18182 0 1.45161 -8.18182 0
 2.41935 -8.18182 0 1.45161 -9.09091 0 2.41935 -9.09091 0
 3.3871 -9.09091 0 2.41935 -8.18182 0 2.41935 -9.09091 0
 2.41935 -8.18182 0 3.3871 -9.09091 0 3.3871 -8.18182 0
 3.3871 -9.09091 0 4.35484 -8.18182 0 3.3871 -8.18182 0
 4.35484 -8.18182 0 3.3871 -9.09091 0 4.35484 -9.09091 0
 5.32258 -9.09091 0 4.35484 -8.18182 0 4.35484 -9.09091 0
 4.35484 -8.18182 0 5.32258 -9.09091 0 5.32258 -8.18182 0
 5.32258 -9.09091 0 6.29032 -8.18182 0 5.32258 -8.18182 0
 6.29032 -8.18182 0 5.32258 -9.09091 0 6.29032 -9.09091 0
 7.25806 -9.09091 0 6.29032 -8.18182 0 6.29032 -9.09091 0
 6.29032 -8.18182 0 7.25806 -9.09091 0 7.25806 -8.18182 0
 7.25806 -9.09091 0 8.22581 -8.18182 0 7.25806 -8.18182 0
 8.22581 -8.18182 0 7.25806 -9.09091 0 8.22581 -9.09091 0
 9.19355 -9.09091 0 8.22581 -8.18182 0 8.22581 -9.09091 0
 8.22581 -8.18182 0 9.19355 -9.09091 0 9.19355 -8.18182 0
 9.19355 -9.09091 0 10.1613 -8.18182 0 9.19355 -8.18182 0
 10.1613 -8.18182 0 9.19355 -9.09091 0 10.1613 -9.09091 0
 11.129 -9.09091 0 10.1613 -8.18182 0 10.1613 -9.09091 0
 10.1613 -8.18182 0 11.129 -9.09091 0 11.129 -8.18182 0
 11.129 -9.09091 0 12.0968 -8.18182 0 11.129 -8.18182 0
 12.0968 -8.18182 0 11.129 -9.09091 0 12.0968 -9.09091 0
 13.0645 -9.09091 0 12.0968 -8.18182 0 12.0968 -9.09091 0
 12.0968 -8.18182 0 13.0645 -9.09091 0 13.0645 -8.18182 0
 13.0645 -9.09091 0 14.0323 -8.18182 0 13.0645 -8.18182 0
 14.0323 -8.18182 0 13.0645 -9.09091 0 14.0323 -9.09091 0
 15 -9.09091 0 14.0323 -8.18182 0 14.0323 -9.09091 0
 14.0323 -8.18182 0 15 -9.09091 0 15 -8.18182 0
 -15 -8.18182 0 -14.0323 -7.27273 0 -15 -7.27273 0
 -14.0323 -7.27273 0 -15 -8.18182 0 -14.0323 -8.18182 0
 -13.0645 -8.18182 0 -14.0323 -7.27273 0 -14.0323 -8.18182 0
 -14.0323 -7.27273 0 -13.0645 -8.18182 0 -13.0645 -7.27273 0
 -13.0645 -8.18182 0 -12.0968 -7.27273 0 -13.0645 -7.27273 0
 -12.0968 -7.27273 0 -13.0645 -8.18182 0 -12.0968 -8.18182 0
 -11.129 -8.18182 0 -12.0968 -7.27273 0 -12.0968 -8.18182 0
 -12.0968 -7.27273 0 -11.129 -8.18182 0 -11.129 -7.27273 0
 -11.129 -8.18182 0 -10.1613 -7.27273 0 -11.129 -7.27273 0
 -10.1613 -7.27273 0 -11.129 -8.18182 0 -10.1613 -8.18182 0
 -9.19355 -8.18182 0 -10.1613 -7.27273 0 -10.1613 -8.18182 0
 -10.1613 -7.27273 0 -9.19355 -8.18182 0 -9.19355 -7.27273 0
 -9.19355 -8.18182 0 -8.22581 -7.27273 0 -9.19355 -7.27273 0
 -8.22581 -7.27273 0 -9.19355 -8.18182 0 -8.22581 -8.18182 0
 -7.25806 -8.18182 0 -8.22581 -7.27273 0 -8.22581 -8.18182 0
 -8.22581 -7.27273 0 -7.25806 -8.18182 0 -7.25806 -7.27273 0
 -7.25806 -8.18182 0 -6.29032 -7.27273 0 -7.25806 -7.27273 0
 -6.29032 -7.27273 0 -7.25806 -8.18182 0 -6.29032 -8.18182 0
 -5.32258 -8.18182 0 -6.29032 -7.27273 0 -6.29032 -8.18182 0
 -6.29032 -7.27273 0 -5.32258 -8.18182 0 -5.32258 -7.27273 0
 -5.32258 -8.18182 0 -4.35484 -7.27273 0 -5.32258 -7.27273 0
 -4.35484 -7.27273 0 -5.32258 -8.18182 0 -4.35484 -8.18182 0
 -3.3871 -8.18182 0 -4.35484 -7.27273 0 -4.35484 -8.18182 0
 -4.35484 -7.27273 0 -3.3871 -8.18182 0 -3.3871 -7.27273 0
 -3.3871 -8.18182 0 -2.41935 -7.27273 0 -3.3871 -7.27273 0
 -2.41935 -7.27273 0 -3.3871 -8.18182 0 -2.41935 -8.18182 0
 -1.45161 -8.18182 0 -2.41935 -7.27273 0 -2.41935 -8.18182 0
 -2.41935 -7.27273 0 -1.45161 -8.18182 0 -1.45161 -7.27273 0
 -1.45161 -8.18182 0 -0.483871 -7.27273 0 -1.45161 -7.27273 0
 -0.483871 -7.27273 0 -1.45161 -8.18182 0 -0.483871 -8.18182 0
 0.483871 -8.18182 0 -0.483871 -7.27273 0 -0.483871 -8.18182 0
 -0.483871 -7.27273 0 0.483871 -8.18182 0 0.483871 -7.27273 0
 0.483871 -8.18182 0 1.45161 -7.27273 0 0.483871 -7.27273 0
 1.45161 -7.27273 0 0.483871 -8.18182 0 1.45161 -8.18182 0
 2.41935 -8.18182 0 1.45161 -7.27273 0 1.45161 -8.18182 0
 1.45161 -7.27273 0 2.41935 -8.18182 0 2.41935 -7.27273 0
 2.41935 -8.18182 0 3.3871 -7.27273 0 2.41935 -7.27273 0
 3.3871 -7.27273 0 2.41935 -8.18182 0 3.3871 -8.18182 0
 4.35484 -8.18182 0 3.3871 -7.27273 0 3.3871 -8.18182 0
 3.3871 -7.27273 0 4.35484 -8.18182 0 4.35484 -7.27273 0
 4.35484 -8.18182 0 5.32258 -7.27273 0 4.35484 -7.27273 0
 5.32258 -7.27273 0 4.35484 -8.18182 0 5.32258 -8.18182 0
 6.29032 -8.18182 0 5.32258 -7.27273 0 5.32258 -8.18182 0
 5.32258 -7.27273 0 6.29032 -8.18182 0 6.29032 -7.27273 0
 6.29032 -8.18182 0 7.25806 -7.27273 0 6.29032 -7.27273 0
 7.25806 -7.27273 0 6.29032 -8.18182 0 7.25806 -8.18182 0
 8.22581 -8.18182 0 7.25806 -7.27273 0 7.25806 -8.18182 0
 7.25806 -7.27273 0 8.22581 -8.18182 0 8.22581 -7.27273 0
 8.22581 -8.18182 0 9.19355 -7.27273 0 8.22581 -7.27273 0
 9.19355 -7.27273 0 8.22581 -8.18182 0 9.19355 -8.18182 0
 10.1613 -8.18182 0 9.19355 -7.27273 0 9.19355 -8.18182 0
 9.19355 -7.27273 0 10.1613 -8.18182 0 10.1613 -7.27273 0
 10.1613 -8.18182 0 11.129 -7.27273 0 10.1613 -7.27273 0
 11.129 -7.27273 0 10.1613 -8.18182 0 11.129 -8.18182 0
 12.0968 -8.18182 0 11.129 -7.27273 0 11.129 -8.18182 0
 11.129 -7.27273 0 12.0968 -8.18182 0 12.0968 -7.27273 0
 12.0968 -8.18182 0 13.0645 -7.27273 0 12.0968 -7.27273 0
 13.0645 -7.27273 0 12.0968 -8.18182 0 13.0645 -8.18182 0
 14.0323 -8.18182 0 13.0645 -7.27273 0 13.0645 -8.18182 0
 13.0645 -7.27273 0 14.0323 -8.18182 0 14.0323 -7.27273 0
 14.0323 -8.18182 0 15 -7.27273 0 14.0323 -7.27273 0
 15 -7.27273 0 14.0323 -8.18182 0 15 -8.18182 0
 -14.0323 -7.27273 0 -15 -6.36364 0 -15 -7.27273 0
 -15 -6.36364 0 -14.0323 -7.27273 0 -14.0323 -6.36364 0
 -14.0323 -7.27273 0 -13.0645 -6.36364 0 -14.0323 -6.36364 0
 -13.0645 -6.36364 0 -14.0323 -7.27273 0 -13.0645 -7.27273 0
 -12.0968 -7.27273 0 -13.0645 -6.36364 0 -13.0645 -7.27273 0
 -13.0645 -6.36364 0 -12.0968 -7.27273 0 -12.0968 -6.36364 0
 -12.0968 -7.27273 0 -11.129 -6.36364 0 -12.0968 -6.36364 0
 -11.129 -6.36364 0 -12.0968 -7.27273 0 -11.129 -7.27273 0
 -10.1613 -7.27273 0 -11.129 -6.36364 0 -11.129 -7.27273 0
 -11.129 -6.36364 0 -10.1613 -7.27273 0 -10.1613 -6.36364 0
 -10.1613 -7.27273 0 -9.19355 -6.36364 0 -10.1613 -6.36364 0
 -9.19355 -6.36364 0 -10.1613 -7.27273 0 -9.19355 -7.27273 0
 -8.22581 -7.27273 0 -9.19355 -6.36364 0 -9.19355 -7.27273 0
 -9.19355 -6.36364 0 -8.22581 -7.27273 0 -8.22581 -6.36364 0
 -8.22581 -7.27273 0 -7.25806 -6.36364 0 -8.22581 -6.36364 0
 -7.25806 -6.36364 0 -8.22581 -7.27273 0 -7.25806 -7.27273 0
 -6.29032 -7.27273 0 -7.25806 -6.36364 0 -7.25806 -7.27273 0
 -7.25806 -6.36364 0 -6.29032 -7.27273 0 -6.29032 -6.36364 0
 -6.29032 -7.27273 0 -5.32258 -6.36364 0 -6.29032 -6.36364 0
 -5.32258 -6.36364 0 -6.29032 -7.27273 0 -5.32258 -7.27273 0
 -4.35484 -7.27273 0 -5.32258 -6.36364 0 -5.32258 -7.27273 0
 -5.32258 -6.36364 0 -4.35484 -7.27273 0 -4.35484 -6.36364 0
 -4.35484 -7.27273 0 -3.3871 -6.36364 0 -4.35484 -6.36364 0
 -3.3871 -6.36364 0 -4.35484 -7.27273 0 -3.3871 -7.27273 0
 -2.41935 -7.27273 0 -3.3871 -6.36364 0 -3.3871 -7.27273 0
 -3.3871 -6.36364 0 -2.41935 -7.27273 0 -2.41935 -6.36364 0
 -2.41935 -7.27273 0 -1.45161 -6.36364 0 -2.41935 -6.36364 0
 -1.45161 -6.36364 0 -2.41935 -7.27273 0 -1.45161 -7.27273 0
 -0.483871 -7.27273 0 -1.45161 -6.36364 0 -1.45161 -7.27273 0
 -1.45161 -6.36364 0 -0.483871 -7.27273 0 -0.483871 -6.36364 0
 -0.483871 -7.27273 0 0.483871 -6.36364 0 -0.483871 -6.36364 0
 0.483871 -6.36364 0 -0.483871 -7.27273 0 0.483871 -7.27273 0
 1.45161 -7.27273 0 0.483871 -6.36364 0 0.483871 -7.27273 0
 0.483871 -6.36364 0 1.45161 -7.27273 0 1.45161 -6.36364 0
 1.45161 -7.27273 0 2.41935 -6.36364 0 1.45161 -6.36364 0
 2.41935 -6.36364 0 1.45161 -7.27273 0 2.41935 -7.27273 0
 3.3871 -7.27273 0 2.41935 -6.36364 0 2.41935 -7.27273 0
 2.41935 -6.36364 0 3.3871 -7.27273 0 3.3871 -6.36364 0
 3.3871 -7.27273 0 4.35484 -6.36364 0 3.3871 -6.36364 0
 4.35484 -6.36364 0 3.3871 -7.27273 0 4.35484 -7.27273 0
 5.32258 -7.27273 0 4.35484 -6.36364 0 4.35484 -7.27273 0
 4.35484 -6.36364 0 5.32258 -7.27273 0 5.32258 -6.36364 0
 5.32258 -7.27273 0 6.29032 -6.36364 0 5.32258 -6.36364 0
 6.29032 -6.36364 0 5.32258 -7.27273 0 6.29032 -7.27273 0
 7.25806 -7.27273 0 6.29032 -6.36364 0 6.29032 -7.27273 0
 6.29032 -6.36364 0 7.25806 -7.27273 0 7.25806 -6.36364 0
 7.25806 -7.27273 0 8.22581 -6.36364 0 7.25806 -6.36364 0
 8.22581 -6.36364 0 7.25806 -7.27273 0 8.22581 -7.27273 0
 9.19355 -7.27273 0 8.22581 -6.36364 0 8.22581 -7.27273 0
 8.22581 -6.36364 0 9.19355 -7.27273 0 9.19355 -6.36364 0
 9.19355 -7.27273 0 10.1613 -6.36364 0 9.19355 -6.36364 0
 10.1613 -6.36364 0 9.19355 -7.27273 0 10.1613 -7.27273 0
 11.129 -7.27273 0 10.1613 -6.36364 0 10.1613 -7.27273 0
 10.1613 -6.36364 0 11.129 -7.27273 0 11.129 -6.36364 0
 11.129 -7.27273 0 12.0968 -6.36364 0 11.129 -6.36364 0
 12.0968 -6.36364 0 11.129 -7.27273 0 12.0968 -7.27273 0
 13.0645 -7.27273 0 12.0968 -6.36364 0 12.0968 -7.27273 0
 12.0968 -6.36364 0 13.0645 -7.27273 0 13.0645 -6.36364 0
 13.0645 -7.27273 0 14.0323 -6.36364 0 13.0645 -6.36364 0
 14.0323 -6.36364 0 13.0645 -7.27273 0 14.0323 -7.27273 0
 15 -7.27273 0 14.0323 -6.36364 0 14.0323 -7.27273 0
 14.0323 -6.36364 0 15 -7.27273 0 15 -6.36364 0
 -15 -6.36364 0 -14.0323 -5.45455 0 -15 -5.45455 0
 -14.0323 -5.45455 0 -15 -6.36364 0 -14.0323 -6.36364 0
 -13.0645 -6.36364 0 -14.0323 -5.45455 0 -14.0323 -6.36364 0
 -14.0323 -5.45455 0 -13.0645 -6.36364 0 -13.0645 -5.45455 0
 -13.0645 -6.36364 0 -12.0968 -5.45455 0 -13.0645 -5.45455 0
 -12.0968 -5.45455 0 -13.0645 -6.36364 0 -12.0968 -6.36364 0
 -11.129 -6.36364 0 -12.0968 -5.45455 0 -12.0968 -6.36364 0
 -12.0968 -5.45455 0 -11.129 -6.36364 0 -11.129 -5.45455 0
 -11.129 -6.36364 0 -10.1613 -5.45455 0 -11.129 -5.45455 0
 -10.1613 -5.45455 0 -11.129 -6.36364 0 -10.1613 -6.36364 0
 -9.19355 -6.36364 0 -10.1613 -5.45455 0 -10.1613 -6.36364 0
 -10.1613 -5.45455 0 -9.19355 -6.36364 0 -9.19355 -5.45455 0
 -9.19355 -6.36364 0 -8.22581 -5.45455 0 -9.19355 -5.45455 0
 -8.22581 -5.45455 0 -9.19355 -6.36364 0 -8.22581 -6.36364 0
 -7.25806 -6.36364 0 -8.22581 -5.45455 0 -8.22581 -6.36364 0
 -8.22581 -5.45455 0 -7.25806 -6.36364 0 -7.25806 -5.45455 0
 -7.25806 -6.36364 0 -6.29032 -5.45455 0 -7.25806 -5.45455 0
 -6.29032 -5.45455 0 -7.25806 -6.36364 0 -6.29032 -6.36364 0
 -5.32258 -6.36364 0 -6.29032 -5.45455 0 -6.29032 -6.36364 0
 -6.29032 -5.45455 0 -5.32258 -6.36364 0 -5.32258 -5.45455 0
 -5.32258 -6.36364 0 -4.35484 -5.45455 0 -5.32258 -5.45455 0
 -4.35484 -5.45455 0 -5.32258 -6.36364 0 -4.35484 -6.36364 0
 -3.3871 -6.36364 0 -4.35484 -5.45455 0 -4.35484 -6.36364 0
 -4.35484 -5.45455 0 -3.3871 -6.36364 0 -3.3871 -5.45455 0
 -3.3871 -6.36364 0 -2.41935 -5.45455 0 -3.3871 -5.45455 0
 -2.41935 -5.45455 0 -3.3871 -6.36364 0 -2.41935 -6.36364 0
 -1.45161 -6.36364 0 -2.41935 -5.45455 0 -2.41935 -6.36364 0
 -2.41935 -5.45455 0 -1.45161 -6.36364 0 -1.45161 -5.45455 0
 -1.45161 -6.36364 0 -0.483871 -5.45455 0 -1.45161 -5.45455 0
 -0.483871 -5.45455 0 -1.45161 -6.36364 0 -0.483871 -6.36364 0
 0.483871 -6.36364 0 -0.483871 -5.45455 0 -0.483871 -6.36364 0
 -0.483871 -5.45455 0 0.483871 -6.36364 0 0.483871 -5.45455 0
 0.483871 -6.36364 0 1.45161 -5.45455 0 0.483871 -5.45455 0
 1.45161 -5.45455 0 0.483871 -6.36364 0 1.45161 -6.36364 0
 2.41935 -6.36364 0 1.45161 -5.45455 0 1.45161 -6.36364 0
 1.45161 -5.45455 0 2.41935 -6.36364 0 2.41935 -5.45455 0
 2.41935 -6.36364 0 3.3871 -5.45455 0 2.41935 -5.45455 0
 3.3871 -5.45455 0 2.41935 -6.36364 0 3.3871 -6.36364 0
 4.35484 -6.36364 0 3.3871 -5.45455 0 3.3871 -6.36364 0
 3.3871 -5.45455 0 4.35484 -6.36364 0 4.35484 -5.45455 0
 4.35484 -6.36364 0 5.32258 -5.45455 0 4.35484 -5.45455 0
 5.32258 -5.45455 0 4.35484 -6.36364 0 5.32258 -6.36364 0
 6.29032 -6.36364 0 5.32258 -5.45455 0 5.32258 -6.36364 0
 5.32258 -5.45455 0 6.29032 -6.36364 0 6.29032 -5.45455 0
 6.29032 -6.36364 0 7.25806 -5.45455 0 6.29032 -5.45455 0
 7.25806 -5.45455 0 6.29032 -6.36364 0 7.25806 -6.36364 0
 8.22581 -6.36364 0 7.25806 -5.45455 0 7.25806 -6.36364 0
 7.25806 -5.45455 0 8.22581 -6.36364 0 8.22581 -5.45455 0
 8.22581 -6.36364 0 9.19355 -5.45455 0 8.22581 -5.45455 0
 9.19355 -5.45455 0 8.22581 -6.36364 0 9.19355 -6.36364 0
 10.1613 -6.36364 0 9.19355 -5.45455 0 9.19355 -6.36364 0
 9.19355 -5.45455 0 10.1613 -6.36364 0 10.1613 -5.45455 0
 10.1613 -6.36364 0 11.129 -5.45455 0 10.1613 -5.45455 0
 11.129 -5.45455 0 10.1613 -6.36364 0 11.129 -6.36364 0
 12.0968 -6.36364 0 11.129 -5.45455 0 11.129 -6.36364 0
 11.129 -5.45455 0 12.0968 -6.36364 0 12.0968 -5.45455 0
 12.0968 -6.36364 0 13.0645 -5.45455 0 12.0968 -5.45455 0
 13.0645 -5.45455 0 12.0968 -6.36364 0 13.0645 -6.36364 0
 14.0323 -6.36364 0 13.0645 -5.45455 0 13.0645 -6.36364 0
 13.0645 -5.45455 0 14.0323 -6.36364 0 14.0323 -5.45455 0
 14.0323 -6.36364 0 15 -5.45455 0 14.0323 -5.45455 0
 15 -5.45455 0 14.0323 -6.36364 0 15 -6.36364 0
 -14.0323 -5.45455 0 -15 -4.54545 0 -15 -5.45455 0
 -15 -4.54545 0 -14.0323 -5.45455 0 -14.0323 -4.54545 0
 -14.0323 -5.45455 0 -13.0645 -4.54545 0 -14.0323 -4.54545 0
 -13.0645 -4.54545 0 -14.0323 -5.45455 0 -13.0645 -5.45455 0
 -12.0968 -5.45455 0 -13.0645 -4.54545 0 -13.0645 -5.45455 0
 -13.0645 -4.54545 0 -12.0968 -5.45455 0 -12.0968 -4.54545 0
 -12.0968 -5.45455 0 -11.129 -4.54545 0 -12.0968 -4.54545 0
 -11.129 -4.54545 0 -12.0968 -5.45455 0 -11.129 -5.45455 0
 -10.1613 -5.45455 0 -11.129 -4.54545 0 -11.129 -5.45455 0
 -11.129 -4.54545 0 -10.1613 -5.45455 0 -10.1613 -4.54545 0
 -10.1613 -5.45455 0 -9.19355 -4.54545 0 -10.1613 -4.54545 0
 -9.19355 -4.54545 0 -10.1613 -5.45455 0 -9.19355 -5.45455 0
 -8.22581 -5.45455 0 -9.19355 -4.54545 0 -9.19355 -5.45455 0
 -9.19355 -4.54545 0 -8.22581 -5.45455 0 -8.22581 -4.54545 0
 -8.22581 -5.45455 0 -7.25806 -4.54545 0 -8.22581 -4.54545 0
 -7.25806 -4.54545 0 -8.22581 -5.45455 0 -7.25806 -5.45455 0
 -6.29032 -5.45455 0 -7.25806 -4.54545 0 -7.25806 -5.45455 0
 -7.25806 -4.54545 0 -6.29032 -5.45455 0 -6.29032 -4.54545 0
 -6.29032 -5.45455 0 -5.32258 -4.54545 0 -6.29032 -4.54545 0
 -5.32258 -4.54545 0 -6.29032 -5.45455 0 -5.32258 -5.45455 0
 -4.35484 -5.45455 0 -5.32258 -4.54545 0 -5.32258 -5.45455 0
 -5.32258 -4.54545 0 -4.35484 -5.45455 0 -4.35484 -4.54545 0
 -4.35484 -5.45455 0 -3.3871 -4.54545 0 -4.35484 -4.54545 0
 -3.3871 -4.54545 0 -4.35484 -5.45455 0 -3.3871 -5.45455 0
 -2.41935 -5.45455 0 -3.3871 -4.54545 0 -3.3871 -5.45455 0
 -3.3871 -4.54545 0 -2.41935 -5.45455 0 -2.41935 -4.54545 0
 -2.41935 -5.45455 0 -1.45161 -4.54545 0 -2.41935 -4.54545 0
 -1.45161 -4.54545 0 -2.41935 -5.45455 0 -1.45161 -5.45455 0
 -0.483871 -5.45455 0 -1.45161 -4.54545 0 -1.45161 -5.45455 0
 -1.45161 -4.54545 0 -0.483871 -5.45455 0 -0.483871 -4.54545 0
 -0.483871 -5.45455 0 0.483871 -4.54545 0 -0.483871 -4.54545 0
 0.483871 -4.54545 0 -0.483871 -5.45455 0 0.483871 -5.45455 0
 1.45161 -5.45455 0 0.483871 -4.54545 0 0.483871 -5.45455 0
 0.483871 -4.54545 0 1.45161 -5.45455 0 1.45161 -4.54545 0
 1.45161 -5.45455 0 2.41935 -4.54545 0 1.45161 -4.54545 0
 2.41935 -4.54545 0 1.45161 -5.45455 0 2.41935 -5.45455 0
 3.3871 -5.45455 0 2.41935 -4.54545 0 2.41935 -5.45455 0
 2.41935 -4.54545 0 3.3871 -5.45455 0 3.3871 -4.54545 0
 3.3871 -5.45455 0 4.35484 -4.54545 0 3.3871 -4.54545 0
 4.35484 -4.54545 0 3.3871 -5.45455 0 4.35484 -5.45455 0
 5.32258 -5.45455 0 4.35484 -4.54545 0 4.35484 -5.45455 0
 4.35484 -4.54545 0 5.32258 -5.45455 0 5.32258 -4.54545 0
 5.32258 -5.45455 0 6.29032 -4.54545 0 5.32258 -4.54545 0
 6.29032 -4.54545 0 5.32258 -5.45455 0 6.29032 -5.45455 0
 7.25806 -5.45455 0 6.29032 -4.54545 0 6.29032 -5.45455 0
 6.29032 -4.54545 0 7.25806 -5.45455 0 7.25806 -4.54545 0
 7.25806 -5.45455 0 8.22581 -4.54545 0 7.25806 -4.54545 0
 8.22581 -4.54545 0 7.25806 -5.45455 0 8.22581 -5.45455 0
 9.19355 -5.45455 0 8.22581 -4.54545 0 8.22581 -5.45455 0
 8.22581 -4.54545 0 9.19355 -5.45455 0 9.19355 -4.54545 0
 9.19355 -5.45455 0 10.1613 -4.54545 0 9.19355 -4.54545 0
 10.1613 -4.54545 0 9.19355 -5.45455 0 10.1613 -5.45455 0
 11.129 -5.45455 0 10.1613 -4.54545 0 10.1613 -5.45455 0
 10.1613 -4.54545 0 11.129 -5.45455 0 11.129 -4.54545 0
 11.129 -5.45455 0 12.0968 -4.54545 0 11.129 -4.54545 0
 12.0968 -4.54545 0 11.129 -5.45455 0 12.0968 -5.45455 0
 13.0645 -5.45455 0 12.0968 -4.54545 0 12.0968 -5.45455 0
 12.0968 -4.54545 0 13.0645 -5.45455 0 13.0645 -4.54545 0
 13.0645 -5.45455 0 14.0323 -4.54545 0 13.0645 -4.54545 0
 14.0323 -4.54545 0 13.0645 -5.45455 0 14.0323 -5.45455 0
 15 -5.45455 0 14.0323 -4.54545 0 14.0323 -5.45455 0
 14.0323 -4.54545 0 15 -5.45455 0 15 -4.54545 0
 -15 -4.54545 0 -14.0323 -3.63636 0 -15 -3.63636 0
 -14.0323 -3.63636 0 -15 -4.54545 0 -14.0323 -4.54545 0
 -13.0645 -4.54545 0 -14.0323 -3.63636 0 -14.0323 -4.54545 0
 -14.0323 -3.63636 0 -13.0645 -4.54545 0 -13.0645 -3.63636 0
 -13.0645 -4.54545 0 -12.0968 -3.63636 0 -13.0645 -3.63636 0
 -12.0968 -3.63636 0 -13.0645 -4.54545 0 -12.0968 -4.54545 0
 -11.129 -4.54545 0 -12.0968 -3.63636 0 -12.0968 -4.54545 0
 -12.0968 -3.63636 0 -11.129 -4.54545 0 -11.129 -3.63636 0
 -11.129 -4.54545 0 -10.1613 -3.63636 0 -11.129 -3.63636 0
 -10.1613 -3.63636 0 -11.129 -4.54545 0 -10.1613 -4.54545 0
 -9.19355 -4.54545 0 -10.1613 -3.63636 0 -10.1613 -4.54545 0
 -10.1613 -3.63636 0 -9.19355 -4.54545 0 -9.19355 -3.63636 0
 -9.19355 -4.54545 0 -8.22581 -3.63636 0 -9.19355 -3.63636 0
 -8.22581 -3.63636 0 -9.19355 -4.54545 0 -8.22581 -4.54545 0
 -7.25806 -4.54545 0 -8.22581 -3.63636 0 -8.22581 -4.54545 0
 -8.22581 -3.63636 0 -7.25806 -4.54545 0 -7.25806 -3.63636 0
 -7.25806 -4.54545 0 -6.29032 -3.63636 0 -7.25806 -3.63636 0
 -6.29032 -3.63636 0 -7.25806 -4.54545 0 -6.29032 -4.54545 0
 -5.32258 -4.54545 0 -6.29032 -3.63636 0 -6.29032 -4.54545 0
 -6.29032 -3.63636 0 -5.32258 -4.54545 0 -5.32258 -3.63636 0
 -5.32258 -4.54545 0 -4.35484 -3.63636 0 -5.32258 -3.63636 0
 -4.35484 -3.63636 0 -5.32258 -4.54545 0 -4.35484 -4.54545 0
 -3.3871 -4.54545 0 -4.35484 -3.63636 0 -4.35484 -4.54545 0
 -4.35484 -3.63636 0 -3.3871 -4.54545 0 -3.3871 -3.63636 0
 -3.3871 -4.54545 0 -2.41935 -3.63636 0 -3.3871 -3.63636 0
 -2.41935 -3.63636 0 -3.3871 -4.54545 0 -2.41935 -4.54545 0
 -1.45161 -4.54545 0 -2.41935 -3.63636 0 -2.41935 -4.54545 0
 -2.41935 -3.63636 0 -1.45161 -4.54545 0 -1.45161 -3.63636 0
 -1.45161 -4.54545 0 -0.483871 -3.63636 0 -1.45161 -3.63636 0
 -0.483871 -3.63636 0 -1.45161 -4.54545 0 -0.483871 -4.54545 0
 0.483871 -4.54545 0 -0.483871 -3.63636 0 -0.483871 -4.54545 0
 -0.483871 -3.63636 0 0.483871 -4.54545 0 0.483871 -3.63636 0
 0.483871 -4.54545 0 1.45161 -3.63636 0 0.483871 -3.63636 0
 1.45161 -3.63636 0 0.483871 -4.54545 0 1.45161 -4.54545 0
 2.41935 -4.54545 0 1.45161 -3.63636 0 1.45161 -4.54545 0
 1.45161 -3.63636 0 2.41935 -4.54545 0 2.41935 -3.63636 0
 2.41935 -4.54545 0 3.3871 -3.63636 0 2.41935 -3.63636 0
 3.3871 -3.63636 0 2.41935 -4.54545 0 3.3871 -4.54545 0
 4.35484 -4.54545 0 3.3871 -3.63636 0 3.3871 -4.54545 0
 3.3871 -3.63636 0 4.35484 -4.54545 0 4.35484 -3.63636 0
 4.35484 -4.54545 0 5.32258 -3.63636 0 4.35484 -3.63636 0
 5.32258 -3.63636 0 4.35484 -4.54545 0 5.32258 -4.54545 0
 6.29032 -4.54545 0 5.32258 -3.63636 0 5.32258 -4.54545 0
 5.32258 -3.63636 0 6.29032 -4.54545 0 6.29032 -3.63636 0
 6.29032 -4.54545 0 7.25806 -3.63636 0 6.29032 -3.63636 0
 7.25806 -3.63636 0 6.29032 -4.54545 0 7.25806 -4.54545 0
 8.22581 -4.54545 0 7.25806 -3.63636 0 7.25806 -4.54545 0
 7.25806 -3.63636 0 8.22581 -4.54545 0 8.22581 -3.63636 0
 8.22581 -4.54545 0 9.19355 -3.63636 0 8.22581 -3.63636 0
 9.19355 -3.63636 0 8.22581 -4.54545 0 9.19355 -4.54545 0
 10.1613 -4.54545 0 9.19355 -3.63636 0 9.19355 -4.54545 0
 9.19355 -3.63636 0 10.1613 -4.54545 0 10.1613 -3.63636 0
 10.1613 -4.54545 0 11.129 -3.63636 0 10.1613 -3.63636 0
 11.129 -3.63636 0 10.1613 -4.54545 0 11.129 -4.54545 0
 12.0968 -4.54545 0 11.129 -3.63636 0 11.129 -4.54545 0
 11.129 -3.63636 0 12.0968 -4.54545 0 12.0968 -3.63636 0
 12.0968 -4.54545 0 13.0645 -3.63636 0 12.0968 -3.63636 0
 13.0645 -3.63636 0 12.0968 -4.54545 0 13.0645 -4.54545 0
 14.0323 -4.54545 0 13.0645 -3.63636 0 13.0645 -4.54545 0
 13.0645 -3.63636 0 14.0323 -4.54545 0 14.0323 -3.63636 0
 14.0323 -4.54545 0 15 -3.63636 0 14.0323 -3.63636 0
 15 -3.63636 0 14.0323 -4.54545 0 15 -4.54545 0
 -14.0323 -3.63636 0 -15 -2.72727 0 -15 -3.63636 0
 -15 -2.72727 0 -14.0323 -3.63636 0 -14.0323 -2.72727 0
 -14.0323 -3.63636 0 -13.0645 -2.72727 0 -14.0323 -2.72727 0
 -13.0645 -2.72727 0 -14.0323 -3.63636 0 -13.0645 -3.63636 0
 -12.0968 -3.63636 0 -13.0645 -2.72727 0 -13.0645 -3.63636 0
 -13.0645 -2.72727 0 -12.0968 -3.63636 0 -12.0968 -2.72727 0
 -12.0968 -3.63636 0 -11.129 -2.72727 0 -12.0968 -2.72727 0
 -11.129 -2.72727 0 -12.0968 -3.63636 0 -11.129 -3.63636 0
 -10.1613 -3.63636 0 -11.129 -2.72727 0 -11.129 -3.63636 0
 -11.129 -2.72727 0 -10.1613 -3.63636 0 -10.1613 -2.72727 0
 -10.1613 -3.63636 0 -9.19355 -2.72727 0 -10.1613 -2.72727 0
 -9.19355 -2.72727 0 -10.1613 -3.63636 0 -9.19355 -3.63636 0
 -8.22581 -3.63636 0 -9.19355 -2.72727 0 -9.19355 -3.63636 0
 -9.19355 -2.72727 0 -8.22581 -3.63636 0 -8.22581 -2.72727 0
 -8.22581 -3.63636 0 -7.25806 -2.72727 0 -8.22581 -2.72727 0
 -7.25806 -2.72727 0 -8.22581 -3.63636 0 -7.25806 -3.63636 0
 -6.29032 -3.63636 0 -7.25806 -2.72727 0 -7.25806 -3.63636 0
 -7.25806 -2.72727 0 -6.29032 -3.63636 0 -6.29032 -2.72727 0
 -6.29032 -3.63636 0 -5.32258 -2.72727 0 -6.29032 -2.72727 0
 -5.32258 -2.72727 0 -6.29032 -3.63636 0 -5.32258 -3.63636 0
 -4.35484 -3.63636 0 -5.32258 -2.72727 0 -5.32258 -3.63636 0
 -5.32258 -2.72727 0 -4.35484 -3.63636 0 -4.35484 -2.72727 0
 -4.35484 -3.63636 0 -3.3871 -2.72727 0 -4.35484 -2.72727 0
 -3.3871 -2.72727 0 -4.35484 -3.63636 0 -3.3871 -3.63636 0
 -2.41935 -3.63636 0 -3.3871 -2.72727 0 -3.3871 -3.63636 0
 -3.3871 -2.72727 0 -2.41935 -3.63636 0 -2.41935 -2.72727 0
 -2.41935 -3.63636 0 -1.45161 -2.72727 0 -2.41935 -2.72727 0
 -1.45161 -2.72727 0 -2.41935 -3.63636 0 -1.45161 -3.63636 0
 -0.483871 -3.63636 0 -1.45161 -2.72727 0 -1.45161 -3.63636 0
 -1.45161 -2.72727 0 -0.483871 -3.63636 0 -0.483871 -2.72727 0
 -0.483871 -3.63636 0 0.483871 -2.72727 0 -0.483871 -2.72727 0
 0.483871 -2.72727 0 -0.483871 -3.63636 0 0.483871 -3.63636 0
 1.45161 -3.63636 0 0.483871 -2.72727 0 0.483871 -3.63636 0
 0.483871 -2.72727 0 1.45161 -3.63636 0 1.45161 -2.72727 0
 1.45161 -3.63636 0 2.41935 -2.72727 0 1.45161 -2.72727 0
 2.41935 -2.72727 0 1.45161 -3.63636 0 2.41935 -3.63636 0
 3.3871 -3.63636 0 2.41935 -2.72727 0 2.41935 -3.63636 0
 2.41935 -2.72727 0 3.3871 -3.63636 0 3.3871 -2.72727 0
 3.3871 -3.63636 0 4.35484 -2.72727 0 3.3871 -2.72727 0
 4.35484 -2.72727 0 3.3871 -3.63636 0 4.35484 -3.63636 0
 5.32258 -3.63636 0 4.35484 -2.72727 0 4.35484 -3.63636 0
 4.35484 -2.72727 0 5.32258 -3.63636 0 5.32258 -2.72727 0
 5.32258 -3.63636 0 6.29032 -2.72727 0 5.32258 -2.72727 0
 6.29032 -2.72727 0 5.32258 -3.63636 0 6.29032 -3.63636 0
 7.25806 -3.63636 0 6.29032 -2.72727 0 6.29032 -3.63636 0
 6.29032 -2.72727 0 7.25806 -3.63636 0 7.25806 -2.72727 0
 7.25806 -3.63636 0 8.22581 -2.72727 0 7.25806 -2.72727 0
 8.22581 -2.72727 0 7.25806 -3.63636 0 8.22581 -3.63636 0
 9.19355 -3.63636 0 8.22581 -2.72727 0 8.22581 -3.63636 0
 8.22581 -2.72727 0 9.19355 -3.63636 0 9.19355 -2.72727 0
 9.19355 -3.63636 0 10.1613 -2.72727 0 9.19355 -2.72727 0
 10.1613 -2.72727 0 9.19355 -3.63636 0 10.1613 -3.63636 0
 11.129 -3.63636 0 10.1613 -2.72727 0 10.1613 -3.63636 0
 10.1613 -2.72727 0 11.129 -3.63636 0 11.129 -2.72727 0
 11.129 -3.63636 0 12.0968 -2.72727 0 11.129 -2.72727 0
 12.0968 -2.72727 0 11.129 -3.63636 0 12.0968 -3.63636 0
 13.0645 -3.63636 0 12.0968 -2.72727 0 12.0968 -3.63636 0
 12.0968 -2.72727 0 13.0645 -3.63636 0 13.0645 -2.72727 0
 13.0645 -3.63636 0 14.0323 -2.72727 0 13.0645 -2.72727 0
 14.0323 -2.72727 0 13.0645 -3.63636 0 14.0323 -3.63636 0
 15 -3.63636 0 14.0323 -2.72727 0 14.0323 -3.63636 0
 14.0323 -2.72727 0 15 -3.63636 0 15 -2.72727 0
 -15 -2.72727 0 -14.0323 -1.81818 0 -15 -1.81818 0
 -14.0323 -1.81818 0 -15 -2.72727 0 -14.0323 -2.72727 0
 -13.0645 -2.72727 0 -14.0323 -1.81818 0 -14.0323 -2.72727 0
 -14.0323 -1.81818 0 -13.0645 -2.72727 0 -13.0645 -1.81818 0
 -13.0645 -2.72727 0 -12.0968 -1.81818 0 -13.0645 -1.81818 0
 -12.0968 -1.81818 0 -13.0645 -2.72727 0 -12.0968 -2.72727 0
 -11.129 -2.72727 0 -12.0968 -1.81818 0 -12.0968 -2.72727 0
 -12.0968 -1.81818 0 -11.129 -2.72727 0 -11.129 -1.81818 0
 -11.129 -2.72727 0 -10.1613 -1.81818 0 -11.129 -1.81818 0
 -10.1613 -1.81818 0 -11.129 -2.72727 0 -10.1613 -2.72727 0
 -9.19355 -2.72727 0 -10.1613 -1.81818 0 -10.1613 -2.72727 0
 -10.1613 -1.81818 0 -9.19355 -2.72727 0 -9.19355 -1.81818 0
 -9.19355 -2.72727 0 -8.22581 -1.81818 0 -9.19355 -1.81818 0
 -8.22581 -1.81818 0 -9.19355 -2.72727 0 -8.22581 -2.72727 0
 -7.25806 -2.72727 0 -8.22581 -1.81818 0 -8.22581 -2.72727 0
 -8.22581 -1.81818 0 -7.25806 -2.72727 0 -7.25806 -1.81818 0
 -7.25806 -2.72727 0 -6.29032 -1.81818 0 -7.25806 -1.81818 0
 -6.29032 -1.81818 0 -7.25806 -2.72727 0 -6.29032 -2.72727 0
 -5.32258 -2.72727 0 -6.29032 -1.81818 0 -6.29032 -2.72727 0
 -6.29032 -1.81818 0 -5.32258 -2.72727 0 -5.32258 -1.81818 0
 -5.32258 -2.72727 0 -4.35484 -1.81818 0 -5.32258 -1.81818 0
 -4.35484 -1.81818 0 -5.32258 -2.72727 0 -4.35484 -2.72727 0
 -3.3871 -2.72727 0 -4.35484 -1.81818 0 -4.35484 -2.72727 0
 -4.35484 -1.81818 0 -3.3871 -2.72727 0 -3.3871 -1.81818 0
 -3.3871 -2.72727 0 -2.41935 -1.81818 0 -3.3871 -1.81818 0
 -2.41935 -1.81818 0 -3.3871 -2.72727 0 -2.41935 -2.72727 0
 -1.45161 -2.72727 0 -2.41935 -1.81818 0 -2.41935 -2.72727 0
 -2.41935 -1.81818 0 -1.45161 -2.72727 0 -1.45161 -1.81818 0
 -1.45161 -2.72727 0 -0.483871 -1.81818 0 -1.45161 -1.81818 0
 -0.483871 -1.81818 0 -1.45161 -2.72727 0 -0.483871 -2.72727 0
 0.483871 -2.72727 0 -0.483871 -1.81818 0 -0.483871 -2.72727 0
 -0.483871 -1.81818 0 0.483871 -2.72727 0 0.483871 -1.81818 0
 0.483871 -2.72727 0 1.45161 -1.81818 0 0.483871 -1.81818 0
 1.45161 -1.81818 0 0.483871 -2.72727 0 1.45161 -2.72727 0
 2.41935 -2.72727 0 1.45161 -1.81818 0 1.45161 -2.72727 0
 1.45161 -1.81818 0 2.41935 -2.72727 0 2.41935 -1.81818 0
 2.41935 -2.72727 0 3.3871 -1.81818 0 2.41935 -1.81818 0
 3.3871 -1.81818 0 2.41935 -2.72727 0 3.3871 -2.72727 0
 4.35484 -2.72727 0 3.3871 -1.81818 0 3.3871 -2.72727 0
 3.3871 -1.81818 0 4.35484 -2.72727 0 4.35484 -1.81818 0
 4.35484 -2.72727 0 5.32258 -1.81818 0 4.35484 -1.81818 0
 5.32258 -1.81818 0 4.35484 -2.72727 0 5.32258 -2.72727 0
 6.29032 -2.72727 0 5.32258 -1.81818 0 5.32258 -2.72727 0
 5.32258 -1.81818 0 6.29032 -2.72727 0 6.29032 -1.81818 0
 6.29032 -2.72727 0 7.25806 -1.81818 0 6.29032 -1.81818 0
 7.25806 -1.81818 0 6.29032 -2.72727 0 7.25806 -2.72727 0
 8.22581 -2.72727 0 7.25806 -1.81818 0 7.25806 -2.72727 0
 7.25806 -1.81818 0 8.22581 -2.72727 0 8.22581 -1.81818 0
 8.22581 -2.72727 0 9.19355 -1.81818 0 8.22581 -1.81818 0
 9.19355 -1.81818 0 8.22581 -2.72727 0 9.19355 -2.72727 0
 10.1613 -2.72727 0 9.19355 -1.81818 0 9.19355 -2.72727 0
 9.19355 -1.81818 0 10.1613 -2.72727 0 10.1613 -1.81818 0
 10.1613 -2.72727 0 11.129 -1.81818 0 10.1613 -1.81818 0
 11.129 -1.81818 0 10.1613 -2.72727 0 11.129 -2.72727 0
 12.0968 -2.72727 0 11.129 -1.81818 0 11.129 -2.72727 0
 11.129 -1.81818 0 12.0968 -2.72727 0 12.0968 -1.81818 0
 12.0968 -2.72727 0 13.0645 -1.81818 0 12.0968 -1.81818 0
 13.0645 -1.81818 0 12.0968 -2.72727 0 13.0645 -2.72727 0
 14.0323 -2.72727 0 13.0645 -1.81818 0 13.0645 -2.72727 0
 13.0645 -1.81818 0 14.0323 -2.72727 0 14.0323 -1.81818 0
 14.0323 -2.72727 0 15 -1.81818 0 14.0323 -1.81818 0
 15 -1.81818 0 14.0323 -2.72727 0 15 -2.72727 0
 -14.0323 -1.81818 0 -15 -0.909091 0 -15 -1.81818 0
 -15 -0.909091 0 -14.0323 -1.81818 0 -14.0323 -0.909091 0
 -14.0323 -1.81818 0 -13.0645 -0.909091 0 -14.0323 -0.909091 0
 -13.0645 -0.909091 0 -14.0323 -1.81818 0 -13.0645 -1.81818 0
 -12.0968 -1.81818 0 -13.0645 -0.909091 0 -13.0645 -1.81818 0
 -13.0645 -0.909091 0 -12.0968 -1.81818 0 -12.0968 -0.909091 0
 -12.0968 -1.81818 0 -11.129 -0.909091 0 -12.0968 -0.909091 0
 -11.129 -0.909091 0 -12.0968 -1.81818 0 -11.129 -1.81818 0
 -10.1613 -1.81818 0 -11.129 -0.909091 0 -11.129 -1.81818 0
 -11.129 -0.909091 0 -10.1613 -1.81818 0 -10.1613 -0.909091 0
 -10.1613 -1.81818 0 -9.19355 -0.909091 0 -10.1613 -0.909091 0
 -9.19355 -0.909091 0 -10.1613 -1.81818 0 -9.19355 -1.81818 0
 -8.22581 -1.81818 0 -9.19355 -0.909091 0 -9.19355 -1.81818 0
 -9.19355 -0.909091 0 -8.22581 -1.81818 0 -8.22581 -0.909091 0
 -8.22581 -1.81818 0 -7.25806 -0.909091 0 -8.22581 -0.909091 0
 -7.25806 -0.909091 0 -8.22581 -1.81818 0 -7.25806 -1.81818 0
 -6.29032 -1.81818 0 -7.25806 -0.909091 0 -7.25806 -1.81818 0
 -7.25806 -0.909091 0 -6.29032 -1.81818 0 -6.29032 -0.909091 0
 -6.29032 -1.81818 0 -5.32258 -0.909091 0 -6.29032 -0.909091 0
 -5.32258 -0.909091 0 -6.29032 -1.81818 0 -5.32258 -1.81818 0
 -4.35484 -1.81818 0 -5.32258 -0.909091 0 -5.32258 -1.81818 0
 -5.32258 -0.909091 0 -4.35484 -1.81818 0 -4.35484 -0.909091 0
 -4.35484 -1.81818 0 -3.3871 -0.909091 0 -4.35484 -0.909091 0
 -3.3871 -0.909091 0 -4.35484 -1.81818 0 -3.3871 -1.81818 0
 -2.41935 -1.81818 0 -3.3871 -0.909091 0 -3.3871 -1.81818 0
 -3.3871 -0.909091 0 -2.41935 -1.81818 0 -2.41935 -0.909091 0
 -2.41935 -1.81818 0 -1.45161 -0.909091 0 -2.41935 -0.909091 0
 -1.45161 -0.909091 0 -2.41935 -1.81818 0 -1.45161 -1.81818 0
 -0.483871 -1.81818 0 -1.45161 -0.909091 0 -1.45161 -1.81818 0
 -1.45161 -0.909091 0 -0.483871 -1.81818 0 -0.483871 -0.909091 0
 -0.483871 -1.81818 0 0.483871 -0.909091 0 -0.483871 -0.909091 0
 0.483871 -0.909091 0 -0.483871 -1.81818 0 0.483871 -1.81818 0
 1.45161 -1.81818 0 0.483871 -0.909091 0 0.483871 -1.81818 0
 0.483871 -0.909091 0 1.45161 -1.81818 0 1.45161 -0.909091 0
 1.45161 -1.81818 0 2.41935 -0.909091 0 1.45161 -0.909091 0
 2.41935 -0.909091 0 1.45161 -1.81818 0 2.41935 -1.81818 0
 3.3871 -1.81818 0 2.41935 -0.909091 0 2.41935 -1.81818 0
 2.41935 -0.909091 0 3.3871 -1.81818 0 3.3871 -0.909091 0
 3.3871 -1.81818 0 4.35484 -0.909091 0 3.3871 -0.909091 0
 4.35484 -0.909091 0 3.3871 -1.81818 0 4.35484 -1.81818 0
 5.32258 -1.81818 0 4.35484 -0.909091 0 4.35484 -1.81818 0
 4.35484 -0.909091 0 5.32258 -1.81818 0 5.32258 -0.909091 0
 5.32258 -1.81818 0 6.29032 -0.909091 0 5.32258 -0.909091 0
 6.29032 -0.909091 0 5.32258 -1.81818 0 6.29032 -1.81818 0
 7.25806 -1.81818 0 6.29032 -0.909091 0 6.29032 -1.81818 0
 6.29032 -0.909091 0 7.25806 -1.81818 0 7.25806 -0.909091 0
 7.25806 -1.81818 0 8.22581 -0.909091 0 7.25806 -0.909091 0
 8.22581 -0.909091 0 7.25806 -1.81818 0 8.22581 -1.81818 0
 9.19355 -1.81818 0 8.22581 -0.909091 0 8.22581 -1.81818 0
 8.22581 -0.909091 0 9.19355 -1.81818 0 9.19355 -0.909091 0
 9.19355 -1.81818 0 10.1613 -0.909091 0 9.19355 -0.909091 0
 10.1613 -0.909091 0 9.19355 -1.81818 0 10.1613 -1.81818 0
 11.129 -1.81818 0 10.1613 -0.909091 0 10.1613 -1.81818 0
 10.1613 -0.909091 0 11.129 -1.81818 0 11.129 -0.909091 0
 11.129 -1.81818 0 12.0968 -0.909091 0 11.129 -0.909091 0
 12.0968 -0.909091 0 11.129 -1.81818 0 12.0968 -1.81818 0
 13.0645 -1.81818 0 12.0968 -0.909091 0 12.0968 -1.81818 0
 12.0968 -0.909091 0 13.0645 -1.81818 0 13.0645 -0.909091 0
 13.0645 -1.81818 0 14.0323 -0.909091 0 13.0645 -0.909091 0
 14.0323 -0.909091 0 13.0645 -1.81818 0 14.0323 -1.81818 0
 15 -1.81818 0 14.0323 -0.909091 0 14.0323 -1.81818 0
 14.0323 -0.909091 0 15 -1.81818 0 15 -0.909091 0
 -15 -0.909091 0 -14.0323 0 0 -15 0 0
 -14.0323 0 0 -15 -0.909091 0 -14.0323 -0.909091 0
 -13.0645 -0.909091 0 -14.0323 0 0 -14.0323 -0.909091 0
 -14.0323 0 0 -13.0645 -0.909091 0 -13.0645 0 0
 -13.0645 -0.909091 0 -12.0968 0 0 -13.0645 0 0
 -12.0968 0 0 -13.0645 -0.909091 0 -12.0968 -0.909091 0
 -11.129 -0.909091 0 -12.0968 0 0 -12.0968 -0.909091 0
 -12.0968 0 0 -11.129 -0.909091 0 -11.129 0 0
 -11.129 -0.909091 0 -10.1613 0 0 -11.129 0 0
 -10.1613 0 0 -11.129 -0.909091 0 -10.1613 -0.909091 0
 -9.19355 -0.909091 0 -10.1613 0 0 -10.1613 -0.909091 0
 -10.1613 0 0 -9.19355 -0.909091 0 -9.19355 0 0
 -9.19355 -0.909091 0 -8.22581 0 0 -9.19355 0 0
 -8.22581 0 0 -9.19355 -0.909091 0 -8.22581 -0.909091 0
 -7.25806 -0.909091 0 -8.22581 0 0 -8.22581 -0.909091 0
 -8.22581 0 0 -7.25806 -0.909091 0 -7.25806 0 0
 -7.25806 -0.909091 0 -6.29032 0 0 -7.25806 0 0
 -6.29032 0 0 -7.25806 -0.909091 0 -6.29032 -0.909091 0
 -5.32258 -0.909091 0 -6.29032 0 0 -6.29032 -0.909091 0
 -6.29032 0 0 -5.32258 -0.909091 0 -5.32258 0 0
 -5.32258 -0.909091 0 -4.35484 0 0 -5.32258 0 0
 -4.35484 0 0 -5.32258 -0.909091 0 -4.35484 -0.909091 0
 -3.3871 -0.909091 0 -4.35484 0 0 -4.35484 -0.909091 0
 -4.35484 0 0 -3.3871 -0.909091 0 -3.3871 0 0
 -3.3871 -0.909091 0 -2.41935 0 0 -3.3871 0 0
 -2.41935 0 0 -3.3871 -0.909091 0 -2.41935 -0.909091 0
 -1.45161 -0.909091 0 -2.41935 0 0 -2.41935 -0.909091 0
 -2.41935 0 0 -1.45161 -0.909091 0 -1.45161 0 0
 -1.45161 -0.909091 0 -0.483871 0 0 -1.45161 0 0
 -0.483871 0 0 -1.45161 -0.909091 0 -0.483871 -0.909091 0
 0.483871 -0.909091 0 -0.483871 0 0 -0.483871 -0.909091 0
 -0.483871 0 0 0.483871 -0.909091 0 0.483871 0 0
 0.483871 -0.909091 0 1.45161 0 0 0.483871 0 0
 1.45161 0 0 0.483871 -0.909091 0 1.45161 -0.909091 0
 2.41935 -0.909091 0 1.45161 0 0 1.45161 -0.909091 0
 1.45161 0 0 2.41935 -0.909091 0 2.41935 0 0
 2.41935 -0.909091 0 3.3871 0 0 2.41935 0 0
 3.3871 0 0 2.41935 -0.909091 0 3.3871 -0.909091 0
 4.35484 -0.909091 0 3.3871 0 0 3.3871 -0.909091 0
 3.3871 0 0 4.35484 -0.909091 0 4.35484 0 0
 4.35484 -0.909091 0 5.32258 0 0 4.35484 0 0
 5.32258 0 0 4.35484 -0.909091 0 5.32258 -0.909091 0
 6.29032 -0.909091 0 5.32258 0 0 5.32258 -0.909091 0
 5.32258 0 0 6.29032 -0.909091 0 6.29032 0 0
 6.29032 -0.909091 0 7.25806 0 0 6.29032 0 0
 7.25806 0 0 6.29032 -0.909091 0 7.25806 -0.909091 0
 8.22581 -0.909091 0 7.25806 0 0 7.25806 -0.909091 0
 7.25806 0 0 8.22581 -0.909091 0 8.22581 0 0
 8.22581 -0.909091 0 9.19355 0 0 8.22581 0 0
 9.19355 0 0 8.22581 -0.909091 0 9.19355 -0.909091 0
 10.1613 -0.909091 0 9.19355 0 0 9.19355 -0.909091 0
 9.19355 0 0 10.1613 -0.909091 0 10.1613 0 0
 10.1613 -0.909091 0 11.129 0 0 10.1613 0 0
 11.129 0 0 10.1613 -0.909091 0 11.129 -0.909091 0
 12.0968 -0.909091 0 11.129 0 0 11.129 -0.909091 0
 11.129 0 0 12.0968 -0.909091 0 12.0968 0 0
 12.0968 -0.909091 0 13.0645 0 0 12.0968 0 0
 13.0645 0 0 12.0968 -0.909091 0 13.0645 -0.909091 0
 14.0323 -0.909091 0 13.0645 0 0 13.0645 -0.909091 0
 13.0645 0 0 14.0323 -0.909091 0 14.0323 0 0
 14.0323 -0.909091 0 15 0 0 14.0323 0 0
 15 0 0 14.0323 -0.909091 0 15 -0.909091 0

CELLS 682 2728
 3 0 1 2
 3 3 4 5
 3 6 7 8
 3 9 10 11
 3 12 13 14
 3 15 16 17
 3 18 19 20
 3 21 22 23
 3 24 25 26
 3 27 28 29
 3 30 31 32
 3 33 34 35
 3 36 37 38
 3 39 40 41
 3 42 43 44
 3 45 46 47
 3 48 49 50
 3 51 52 53
 3 54 55 56
 3 57 58 59
 3 60 61 62
 3 63 64 65
 3 66 67 68
 3 69 70 71
 3 72 73 74
 3 75 76 77
 3 78 79 80
 3 81 82 83
 3 84 85 86
 3 87 88 89
 3 90 91 92
 3 93 94 95
 3 96 97 98
 3 99 100 101
 3 102 103 104
 3 105 106 107
 3 108 109 110
 3 111 112 113
 3 114 115 116
 3 117 118 119
 3 120 121 122
 3 123 124 125
 3 126 127 128
 3 129 130 131
 3 132 133 134
 3 135 136 137
 3 138 139 140
 3 141 142 143
 3 144 145 146
 3 147 148 149
 3 150 151 152
 3 153 154 155
 3 156 157 158
 3 159 160 161
 3 162 163 164
 3 165 166 167
 3 168 169 170
 3 171 172 173
 3 174 175 176
 3 177 178 179
 3 180 181 182
 3 183 184 185
 3 186 187 188
 3 189 190 191
 3 192 193 194
 3 195 196 197
 3 198 199 200
 3 201 202 203
 3 204 205 206
 3 207 208 209
 3 210 211 212
 3 213 214 215
 3 216 217 218
 3 219 220 221
 3 222 223 224
 3 225 226 227
 3 228 229 230
 3 231 232 233
 3 234 235 236
 3 237 238 239
 3 240 241 242
 3 243 244 245
 3 246 247 248
 3 249 250 251
 3 252 253 254
 3 255 256 257
 3 258 259 260
 3 261 262 263
 3 264 265 266
 3 267 268 269
 3 270 271 272
 3 273 274 275
 3 276 277 278
 3 279 280 281
 3 282 283 284
 3 285 286 287
 3 288 289 290
 3 291 292 293
 3 294 295 296
 3 297 298 299
 3 300 301 302
 3 303 304 305
 3 306 307 308
 3 309 310 311
 3 312 313 314
 3 315 316 317
 3 318 319 320
 3 321 322 323
 3 324 325 326
 3 327 328 329
 3 330 331 332
 3 333 334 335
 3 336 337 338
 3 339 340 341
 3 342 343 344
 3 345 346 347
 3 348 349 350
 3 351 352 353
 3 354 355 356
 3 357 358 359
 3 360 361 362
 3 363 364 365
 3 366 367 368
 3 369 370 371
 3 372 373 374
 3 375 376 377
 3 378 379 380
 3 381 382 383
 3 384 385 386
 3 387 388 389
 3 390 391 392
 3 393 394 395
 3 396 397 398
 3 399 400 401
 3 402 403 404
 3 405 406 407
 3 408 409 410
 3 411 412 413
 3 414 415 416
 3 417 418 419
 3 420 421 422
 3 423 424 425
 3 426 427 428
 3 429 430 431
 3 432 433 434
 3 435 436 437
 3 438 439 440
 3 441 442 443
 3 444 445 446
 3 447 448 449
 3 450 451 452
 3 453 454 455
 3 456 457 458
 3 459 460 461
 3 462 463 464
 3 465 466 467
 3 468 469 470
 3 471 472 473
 3 474 475 476
 3 477 478 479
 3 480 481 482
 3 483 484 485
 3 486 487 488
 3 489 490 491
 3 492 493 494
 3 495 496 497
 3 498 499 500
 3 501 502 503
 3 504 505 506
 3 507 508 509
 3 510 511 512
 3 513 514 515
 3 516 517 518
 3 519 520 521
 3 522 523 524
 3 525 526 527
 3 528 529 530
 3 531 532 533
 3 534 535 536
 3 537 538 539
 3 540 541 542
 3 543 544 545
 3 546 547 548
 3 549 550 551
 3 552 553 554
 3 555 556 557
 3 558 559 560
 3 561 562 563
 3 564 565 566
 3 567 568 569
 3 570 571 572
 3 573 574 575
 3 576 577 578
 3 579 580 581
 3 582 583 584
 3 585 586 587
 3 588 589 590
 3 591 592 593
 3 594 595 596
 3 597 598 599
 3 600 601 602
 3 603 604 605
 3 606 607 608
 3 609 610 611
 3 612 613 614
 3 615 616 617
 3 618 619 620
 3 621 622 623
 3 624 625 626
 3 627 628 629
 3 630 631 632
 3 633 634 635
 3 636 637 638
 3 639 640 641
 3 642 643 644
 3 645 646 647
 3 648 649 650
 3 651 652 653
 3 654 655 656
 3 657 658 659
 3 660 661 662
 3 663 664 665
 3 666 667 668
 3 669 670 671
 3 672 673 674
 3 675 676 677
 3 678 679 680
 3 681 682 683
 3 684 685 686
 3 687 688 689
 3 690 691 692
 3 693 694 695
 3 696 697 698
 3 699 700 701
 3 702 703 704
 3 705 706 707
 3 708 709 710
 3 711 712 713
 3 714 715 716
 3 717 718 719
 3 720 721 722
 3 723 724 725
 3 726 727 728
 3 729 730 731
 3 732 733 734
 3 735 736 737
 3 738 739 740
 3 741 742 743
 3 744 745 746
 3 747 748 749
 3 750 751 752
 3 753 754 755
 3 756 757 758
 3 759 760 761
 3 762 763 764
 3 765 766 767
 3 768 769 770
 3 771 772 773
 3 774 775 776
 3 777 778 779
 3 780 781 782
 3 783 784 785
 3 786 787 788
 3 789 790 791
 3 792 793 794
 3 795 796 797
 3 798 799 800
 3 801 802 803
 3 804 805 806
 3 807 808 809
 3 810 811 812
 3 813 814 815
 3 816 817 818
 3 819 820 821
 3 822 823 824
 3 825 826 827
 3 828 829 830
 3 831 832 833
 3 834 835 836
 3 837 838 839
 3 840 841 842
 3 843 844 845
 3 846 847 848
 3 849 850 851
 3 852 853 854
 3 855 856 857
 3 858 859 860
 3 861 862 863
 3 864 865 866
 3 867 868 869
 3 870 871 872
 3 873 874 875
 3 876 877 878
 3 879 880 881
 3 882 883 884
 3 885 886 887
 3 888 889 890
 3 891 892 893
 3 894 895 896
 3 897 898 899
 3 900 901 902
 3 903 904 905
 3 906 907 908
 3 909 910 911
 3 912 913 914
 3 915 916 917
 3 918 919 920
 3 921 922 923
 3 924 925 926
 3 927 928 929
 3 930 931 932
 3 933 934 935
 3 936 937 938
 3 939 940 941
 3 942 943 944
 3 945 946 947
 3 948 949 950
 3 951 952 953
 3 954 955 956
 3 957 958 959
 3 960 961 962
 3 963 964 965
 3 966 967 968
 3 969 970 971
 3 972 973 974
 3 975 976 977
 3 978 979 980
 3 981 982 983
 3 984 985 986
 3 987 988 989
 3 990 991 992
 3 993 994 995
 3 996 997 998
 3 999 1000 1001
 3 1002 1003 1004
 3 1005 1006 1007
 3 1008 1009 1010
 3 1011 1012 1013
 3 1014 1015 1016
 3 1017 1018 1019
 3 1020 1021 1022
 3 1023 1024 1025
 3 1026 1027 1028
 3 1029 1030 1031
 3 1032 1033 1034
 3 1035 1036 1037
 3 1038 1039 1040
 3 1041 1042 1043
 3 1044 1045 1046
 3 1047 1048 1049
 3 1050 1051 1052
 3 1053 1054 1055
 3 1056 1057 1058
 3 1059 1060 1061
 3 1062 1063 1064
 3 1065 1066 1067
 3 1068 1069 1070
 3 1071 1072 1073
 3 1074 1075 1076
 3 1077 1078 1079
 3 1080 1081 1082
 3 1083 1084 1085
 3 1086 1087 1088
 3 1089 1090 1091
 3 1092 1093 1094
 3 1095 1096 1097
 3 1098 1099 1100
 3 1101 1102 1103
 3 1104 1105 1106
 3 1107 1108 1109
 3 1110 1111 1112
 3 1113 1114 1115
 3 1116 1117 1118
 3 1119 1120 1121
 3 1122 1123 1124
 3 1125 1126 1127
 3 1128 1129 1130
 3 1131 1132 1133
 3 1134 1135 1136
 3 1137 1138 1139
 3 1140 1141 1142
 3 1143 1144 1145
 3 1146 1147 1148
 3 1149 1150 1151
 3 1152 1153 1154
 3 1155 1156 1157
 3 1158 1159 1160
 3 1161 1162 1163
 3 1164 1165 1166
 3 1167 1168 1169
 3 1170 1171 1172
 3 1173 1174 1175
 3 1176 1177 1178
 3 1179 1180 1181
 3 1182 1183 1184
 3 1185 1186 1187
 3 1188 1189 1190
 3 1191 1192 1193
 3 1194 1195 1196
 3 1197 1198 1199
 3 1200 1201 1202
 3 1203 1204 1205
 3 1206 1207 1208
 3 1209 1210 1211
 3 1212 1213 1214
 3 1215 1216 1217
 3 1218 1219 1220
 3 1221 1222 1223
 3 1224 1225 1226
 3 1227 1228 1229
 3 1230 1231 1232
 3 1233 1234 1235
 3 1236 1237 1238
 3 1239 1240 1241
 3 1242 1243 1244
 3 1245 1246 1247
 3 1248 1249 1250
 3 1251 1252 1253
 3 1254 1255 1256
 3 1257 1258 1259
 3 1260 1261 1262
 3 1263 1264 1265
 3 1266 1267 1268
 3 1269 1270 1271
 3 1272 1273 1274
 3 1275 1276 1277
 3 1278 1279 1280
 3 1281 1282 1283
 3 1284 1285 1286
 3 1287 1288 1289
 3 1290 1291 1292
 3 1293 1294 1295
 3 1296 1297 1298
 3 1299 1300 1301
 3 1302 1303 1304
 3 1305 1306 1307
 3 1308 1309 1310
 3 1311 1312 1313
 3 1314 1315 1316
 3 1317 1318 1319
 3 1320 1321 1322
 3 1323 1324 1325
 3 1326 1327 1328
 3 1329 1330 1331
 3 1332 1333 1334
 3 1335 1336 1337
 3 1338 1339 1340
 3 1341 1342 1343
 3 1344 1345 1346
 3 1347 1348 1349
 3 1350 1351 1352
 3 1353 1354 1355
 3 1356 1357 1358
 3 1359 1360 1361
 3 1362 1363 1364
 3 1365 1366 1367
 3 1368 1369 1370
 3 1371 1372 1373
 3 1374 1375 1376
 3 1377 1378 1379
 3 1380 1381 1382
 3 1383 1384 1385
 3 1386 1387 1388
 3 1389 1390 1391
 3 1392 1393 1394
 3 1395 1396 1397
 3 1398 1399 1400
 3 1401 1402 1403
 3 1404 1405 1406
 3 1407 1408 1409
 3 1410 1411 1412
 3 1413 1414 1415
 3 1416 1417 1418
 3 1419 1420 1421
 3 1422 1423 1424
 3 1425 1426 1427
 3 1428 1429 1430
 3 1431 1432 1433
 3 1434 1435 1436
 3 1437 1438 1439
 3 1440 1441 1442
 3 1443 1444 1445
 3 1446 1447 1448
 3 1449 1450 1451
 3 1452 1453 1454
 3 1455 1456 1457
 3 1458 1459 1460
 3 1461 1462 1463
 3 1464 1465 1466
 3 1467 1468 1469
 3 1470 1471 1472
 3 1473 1474 1475
 3 1476 1477 1478
 3 1479 1480 1481
 3 1482 1483 1484
 3 1485 1486 1487
 3 1488 1489 1490
 3 1491 1492 1493
 3 1494 1495 1496
 3 1497 1498 1499
 3 1500 1501 1502
 3 1503 1504 1505
 3 1506 1507 1508
 3 1509 1510 1511
 3 1512 1513 1514
 3 1515 1516 1517
 3 1518 1519 1520
 3 1521 1522 1523
 3 1524 1525 1526
 3 1527 1528 1529
 3 1530 1531 1532
 3 1533 1534 1535
 3 1536 1537 1538
 3 1539 1540 1541
 3 1542 1543 1544
 3 1545 1546 1547
 3 1548 1549 1550
 3 1551 1552 1553
 3 1554 1555 1556
 3 1557 1558 1559
 3 1560 1561 1562
 3 1563 1564 1565
 3 1566 1567 1568
 3 1569 1570 1571
 3 1572 1573 1574
 3 1575 1576 1577
 3 1578 1579 1580
 3 1581 1582 1583
 3 1584 1585 1586
 3 1587 1588 1589
 3 1590 1591 1592
 3 1593 1594 1595
 3 1596 1597 1598
 3 1599 1600 1601
 3 1602 1603 1604
 3 1605 1606 1607
 3 1608 1609 1610
 3 1611 1612 1613
 3 1614 1615 1616
 3 1617 1618 1619
 3 1620 1621 1622
 3 1623 1624 1625
 3 1626 1627 1628
 3 1629 1630 1631
 3 1632 1633 1634
 3 1635 1636 1637
 3 1638 1639 1640
 3 1641 1642 1643
 3 1644 1645 1646
 3 1647 1648 1649
 3 1650 1651 1652
 3 1653 1654 1655
 3 1656 1657 1658
 3 1659 1660 1661
 3 1662 1663 1664
 3 1665 1666 1667
 3 1668 1669 1670
 3 1671 1672 1673
 3 1674 1675 1676
 3 1677 1678 1679
 3 1680 1681 1682
 3 1683 1684 1685
 3 1686 1687 1688
 3 1689 1690 1691
 3 1692 1693 1694
 3 1695 1696 1697
 3 1698 1699 1700
 3 1701 1702 1703
 3 1704 1705 1706
 3 1707 1708 1709
 3 1710 1711 1712
 3 1713 1714 1715
 3 1716 1717 1718
 3 1719 1720 1721
 3 1722 1723 1724
 3 1725 1726 1727
 3 1728 1729 1730
 3 1731 1732 1733
 3 1734 1735 1736
 3 1737 1738 1739
 3 1740 1741 1742
 3 1743 1744 1745
 3 1746 1747 1748
 3 1749 1750 1751
 3 1752 1753 1754
 3 1755 1756 1757
 3 1758 1759 1760
 3 1761 1762 1763
 3 1764 1765 1766
 3 1767 1768 1769
 3 1770 1771 1772
 3 1773 1774 1775
 3 1776 1777 1778
 3 1779 1780 1781
 3 1782 1783 1784
 3 1785 1786 1787
 3 1788 1789 1790
 3 1791 1792 1793
 3 1794 1795 1796
 3 1797 1798 1799
 3 1800 1801 1802
 3 1803 1804 1805
 3 1806 1807 1808
 3 1809 1810 1811
 3 1812 1813 1814
 3 1815 1816 1817
 3 1818 1819 1820
 3 1821 1822 1823
 3 1824 1825 1826
 3 1827 1828 1829
 3 1830 1831 1832
 3 1833 1834 1835
 3 1836 1837 1838
 3 1839 1840 1841
 3 1842 1843 1844
 3 1845 1846 1847
 3 1848 1849 1850
 3 1851 1852 1853
 3 1854 1855 1856
 3 1857 1858 1859
 3 1860 1861 1862
 3 1863 1864 1865
 3 1866 1867 1868
 3 1869 1870 1871
 3 1872 1873 1874
 3 1875 1876 1877
 3 1878 1879 1880
 3 1881 1882 1883
 3 1884 1885 1886
 3 1887 1888 1889
 3 1890 1891 1892
 3 1893 1894 1895
 3 1896 1897 1898
 3 1899 1900 1901
 3 1902 1903 1904
 3 1905 1906 1907
 3 1908 1909 1910
 3 1911 1912 1913
 3 1914 1915 1916
 3 1917 1918 1919
 3 1920 1921 1922
 3 1923 1924 1925
 3 1926 1927 1928
 3 1929 1930 1931
 3 1932 1933 1934
 3 1935 1936 1937
 3 1938 1939 1940
 3 1941 1942 1943
 3 1944 1945 1946
 3 1947 1948 1949
 3 1950 1951 1952
 3 1953 1954 1955
 3 1956 1957 1958
 3 1959 1960 1961
 3 1962 1963 1964
 3 1965 1966 1967
 3 1968 1969 1970
 3 1971 1972 1973
 3 1974 1975 1976
 3 1977 1978 1979
 3 1980 1981 1982
 3 1983 1984 1985
 3 1986 1987 1988
 3 1989 1990 1991
 3 1992 1993 1994
 3 1995 1996 1997
 3 1998 1999 2000
 3 2001 2002 2003
 3 2004 2005 2006
 3 2007 2008 2009
 3 2010 2011 2012
 3 2013 2014 2015
 3 2016 2017 2018
 3 2019 2020 2021
 3 2022 2023 2024
 3 2025 2026 2027
 3 2028 2029 2030
 3 2031 2032 2033
 3 2034 2035 2036
 3 2037 2038 2039
 3 2040 2041 2042
 3 2043 2044 2045

CELL_TYPES 682
 5
 5
 5
 5
 5
 5
 5
 5
 5
 5
 5
 5
 5
 5
 5
 5
 5
 5
 5
 5
 5
 5
 5
 5
 5
 5
 5
 5
 5
 5
 5
 5
 5
 5
 5
 5
 5
 5
 5
 5
 5
 5
 5
 5
 5
 5
 5
 5
 5
 5
 5
 5
 5
 5
 5
 5
 5
 5
 5
 5
 5
 5
 5
 5
 5
 5
 5
 5
 5
 5
 5
 5
 5
 5
 5
 5
 5
 5
 5
 5
 5
 5
 5
 5
 5
 5
 5
 5
 5
 5
 5
 5
 5
 5
 5
 5
 5
 5
 5
 5
 5
 5
 5
 5
 5
 5
 5
 5
 5
 5
 5
 5
 5
 5
 5
 5
 5
 5
 5
 5
 5
 5
 5
 5
 5
 5
 5
 5
 5
 5
 5
 5
 5
 5
 5
 5
 5
 5
 5
 5
 5
 5
 5
 5
 5
 5
 5
 5
 5
 5
 5
 5
 5
 5
 5
 5
 5
 5
 5
 5
 5
 5
 5
 5
 5
 5
 5
 5
 5
 5
 5
 5
 5
 5
 5
 5
 5
 5
 5
 5
 5
 5
 5
 5
 5
 5
 5
 5
 5
 5
 5
 5
 5
 5
 5
 5
 5
 5
 5
 5
 5
 5
 5
 5
 5
 5
 5
 5
 5
 5
 5
 5
 5
 5
 5
 5
 5
 5
 5
 5
 5
 5
 5
 5
 5
 5
 5
 5
 5
 5
 5
 5
 5
 5
 5
 5
 5
 5
 5
 5
 5
 5
 5
 5
 5
 5
 5
 5
 5
 5
 5
 5
 5
 5
 5
 5
 5
 5
 5
 5
 5
 5
 5
 5
 5
 5
 5
 5
 5
 5
 5
 5
 5
 5
 5
 5
 5
 5
 5
 5
 5
 5
 5
 5
 5
 5
 5
 5
 5
 5
 5
 5
 5
 5
 5
 5
 5
 5
 5
 5
 5
 5
 5
 5
 5
 5
 5
 5
 5
 5
 5
 5
 5
 5
 5
 5
 5
 5
 5
 5
 5
 5
 5
 5
 5
 5
 5
 5
 5
 5
 5
 5
 5
 5
 5
 5
 5
 5
 5
 5
 5
 5
 5
 5
 5
 5
 5
 5
 5
 5
 5
 5
 5
 5
 5
 5
 5
 5
 5
 5
 5
 5
 5
 5
 5
 5
 5
 5
 5
 5
 5
 5
 5
 5
 5
 5
 5
 5
 5
 5
 5
 5
 5
 5
 5
 5
 5
 5
 5
 5
 5
 5
 5
 5
 5
 5
 5
 5
 5
 5
 5
 5
 5
 5
 5
 5
 5
 5
 5
 5
 5
 5
 5
 5
 5
 5
 5
 5
 5
 5
 5
 5
 5
 5
 5
 5
 5
 5
 5
 5
 5
 5
 5
 5
 5
 5
 5
 5
 5
 5
 5
 5
 5
 5
 5
 5
 5
 5
 5
 5
 5
 5
 5
 5
 5
 5
 5
 5
 5
 5
 5
 5
 5
 5
 5
 5
 5
 5
 5
 5
 5
 5
 5
 5
 5
 5
 5
 5
 5
 5
 5
 5
 5
 5
 5
 5
 5
 5
 5
 5
 5
 5
 5
 5
 5
 5
 5
 5
 5
 5
 5
 5
 5
 5
 5
 5
 5
 5
 5
 5
 5
 5
 5
 5
 5
 5
 5
 5
 5
 5
 5
 5
 5
 5
 5
 5
 5
 5
 5
 5
 5
 5
 5
 5
 5
 5
 5
 5
 5
 5
 5
 5
 5
 5
 5
 5
 5
 5
 5
 5
 5
 5
 5
 5
 5
 5
 5
 5
 5
 5
 5
 5
 5
 5
 5
 5
 5
 5
 5
 5
 5
 5
 5
 5
 5
 5
 5
 5
 5
 5
 5
 5
 5
 5
 5
 5
 5
 5
 5
 5
 5
 5
 5
 5
 5
 5
 5
 5
 5
 5
 5
 5
 5
 5
 5
 5
 5
 5
 5
 5
 5
 5
 5
 5
 5
 5
 5
 5
 5
 5
 5
 5
 5
 5
 5
 5
 5
 5
 5
 5
 5
 5
 5
 5
 5
 5
 5
 5
 5
 5
 5
 5
 5
 5
 5
 5
 5
 5
 5
 5
 5
 5
 5
 5
 5
 5
 5
 5
 5
 5
 5
 5
 5
 5
 5
 5
 5
 5
 5
 5
 5
 5
 5
 5
 5
 5
 5
 5
 5
 5
 5
 5


POINT_DATA 2046


SCALARS Von_Mises_Stresses float 1
LOOKUP_TABLE default
 120430 144348 41883.5 116470 120286 163059 126602 123709 109438 137180 108299 130532 152738 138548 131350 150152 140816 170687 189321 150865 163566 191823 146917 168927 195053 191145 169065 193104 193018 225515 256946 193844 222629 258087 191608 223574 259138 255452 223562 256385 258301 297138 333967 258102 294522 333739 257215 298776 343002 329756 298817 339924 333182 371286 403958 343399 368805 402415 344386 390475 438316 398174 390591 436554 400082 426211 446227 441673 424537 445316 443727 483374 524741 442306 483496 525082 440186 449070 457060 529668 448474 459728 530847 550396 572348 458541 550459 573423 452883 451318 454715 574544 451263 460521 573942 565485 559607 460901 565463 559355 456248 451060 448985 556211 451299 453246 555224 522130 490884 455336 522033 489032 454730 440408 424151 483795 441514 424042 484465 438436 393750 427827 438307 392023 429436 400285 369042 387592 402432 366021 390214 343336 298438 370339 343255 298393 371347 332628 295475 295872 335168 292140 298936 258718 221641 295677 258738 223229 295270 257305 223924 222056 259452 221410 224311 193908 166812 224119 194063 168968 222992 192044 165788 168353 192872 162990 170285 149867 127954 168303 150534 129763 167380 140358 116825 127373 135452 108969 133206 114948 76831.8 147114 122293 60849.2 169618 129025 122672 18013 38112.6 108557 4667.63 79684 111038 109751 78749.8 108060 111782 130443 148634 112025 131261 151409 109146 128157 145405 149158 128020 144207 150377 168965 191908 145950 169103 194476 143126 166064 194144 192254 166108 192474 194057 223616 257102 195089 223604 259231 192834 230288 274455 255706 230411 272992 258019 298874 343307 276822 298915 344504 275718 331039 392515 340336 331200 392325 342343 390580 441695 396565 390696 441481 397567 462977 531514 438326 463037 531783 439469 483421 529414 535110 483543 528003 538530 590588 642178 526651 590534 640788 527464 550374 574810 642320 550437 573253 646522 659599 670410 573059 659576 666777 574351 565445 557908 666261 565423 556917 668860 635477 600532 557586 635532 596407 559214 522140 486601 593915 522042 485744 594251 530709 468408 487979 530719 466129 488883 438517 390338 462192 438388 388762 461902 394755 332240 392622 394628 332407 392097 343449 297905 328217 343368 295624 329098 276073 229493 299638 275917 231285 297888 258796 223431 228023 258816 221283 229760 194198 164699 224107 194110 167293 221637 193952 169681 165251 194107 168151 166696 144785 126487 169891 144762 129633 166682 149911 131751 127560 150578 130297 128921 110754 80765.2 133506 111238 80297.3 130900 113992 50544.3 82258.4 121332 34420.4 83770.3 20610 55267.5 24464.8 56222.1 58826.3 12876.3 80006.5 111244 52703 79072.5 109363 53771.2 80690.4 99119.6 109457 80378.9 98434 110407 128094 143740 100183 127957 146000 98188.9 115983 137511 143908 115930 136537 144873 166112 192665 139175 166155 195387 136621 166198 204602 191898 166249 203596 193300 230367 274817 207728 230490 277492 205282 258310 321530 272744 258476 322136 273600 331085 395580 326863 331247 397078 325731 403664 487853 393083 403830 489711 393025 462967 536160 493075 463027 534764 495570 576887 657512 533283 576861 657036 534009 590619 645713 658298 590565 641638 664694 711631 753200 641685 711546 748321 644775 659693 670574 748465 659670 666512 754931 742548 724019 666435 742582 716985 670886 635546 597134 716430 635602 595283 719123 653812 585158 595738 653901 580452 598702 530707 463488 578189 530717 463448 577006 490423 406482 466246 490347 406076 466034 394766 328728 401811 394639 328418 400276 325058 258336 333108 324862 260367 330808 276146 228786 255717 275989 227517 256091 205939 165648 231776 205832 168222 229010 194263 165969 164839 194174 164709 166004 137315 115354 167388 137309 117782 164795 144777 128228 115643 144754 127426 116389 98784.7 80340.5 128901 98927.3 81257.9 127590 110471 80290 80587.8 110956 78772.1 81346.4 54860.9 44284.8 71642.4 54908.4 54865.9 77666.5 22846.7 49659.9 74046 56927.2 49625.7 65520.1 44759.7 51411 56308 44776.4 53044.9 55289.8 80690.8 98352.8 51580.9 80379.2 98678.1 51184.3 66647.2 84421.4 98313 66539.6 84029.3 98923.7 115963 136536 85972.4 115909 138853 84123.8 106381 137193 136071 106337 136234 137092 166275 204481 140160 166326 207840 137301 181180 238306 202963 181257 238379 203729 258407 323977 244015 258573 327397 240956 318814 407665 321854 319079 410423 321100 403647 492957 415325 403813 493519 415097 516896 620246 490636 517036 622528 489686 576833 662891 624191 576807 658345 630490 714194 791889 658762 714070 788357 661020 711700 755802 788030 711615 749013 797999 820326 835009 749401 820280 825912 755434 742656 722330 826118 742690 717973 832863 783310 726680 717144 783429 717708 723437 653816 579995 717423 653904 579686 717642 621478 522310 580648 621502 519470 582647 490360 400808 516068 490283 402062 512792 413042 319518 406660 412782 321716 404210 325109 255229 316034 324913 255155 314618 241372 180980 260711 241192 184136 257094 206043 165337 179198 205935 164265 179947 137487 106486 168120 137487 108884 165226 137350 116160 105994 137344 115363 106743 84009.5 66685.6 117106 84087.2 67837.4 115577 98721.3 80845.3 67043.8 98863.9 80405 66941.7 51700.4 41175.1 78104.8 51805.5 42868.8 79560.1 55036.1 47510.3 47147.8 55083.4 57031.2 40575 74784.7 37216.1 74375.2 79889.6 44117.1 66065 44827 49328.5 43201.9 44843.8 49482.1 40453.6 33490.3 38553.3 52419.5 33466.9 40025.4 51820.8 66622.9 83739.3 39903.9 66515.2 84852.2 39389.3 53069 75373.4 83875.1 52999.4 74949.6 84554.8 106403 136564 77553.9 106358 139582 75480.4 106727 152969 135786 106664 152079 136860 181307 239282 157676 181384 243964 153741 220344 303970 237466 220510 305410 237405 318900 412271 312696 319165 416062 309056 418164 534580 410044 418592 539173 408021 516780 627439 543391 516920 624912 546507 664713 776475 624322 664706 776941 624034 714176 797576 776198 714051 788929 788368 853581 911078 790912 853429 902839 796055 820462 835841 902177 820416 828228 913810 895776 871358 827375 895830 858117 836370 783391 722189 859530 783511 719921 863444 773280 674982 718353 773450 666683 724633 621368 514890 665261 621392 516723 661584 541420 420173 520320 541149 421407 519087 413019 313947 414990 412758 315139 411577 309327 220132 322081 308973 224443 317273 241512 179270 217607 241332 178507 217745 153913 107187 183773 153901 110261 179819 137564 106702 106181 137564 105729 107071 74637.9 54013.3 108096 74718.2 55166.3 106041 83988.5 67127.8 53917.9 84066.2 66848.1 53619.2 38917 32457 66194.8 38962.6 33197.6 65925.6 51758.7 42633.6 34404.2 51863.8 46171.6 30687.6 43820.6 72662.4 42224.6 43820.6 79519.2 37905.7 74694.7 38706.1 73616.9 79184.5 43482 68573 45503 31147.7 44440.1 45427.7 34266.5 40078 33513.9 37985.7 35044.5 33490.6 38681.7 34430 30543.2 32775 40116.3 30561.7 34757.9 39424.2 53036 74615.3 34792.3 52966.4 76417.8 34972 46183.3 75882.6 75035 46112.8 75458.9 75822.2 106781 152144 79028.3 106717 156694 75981.6 122028 191093 151517 121927 190225 152702 220547 306030 198345 220713 312732 192399 290886 408400 303719 291305 411529 302939 418180 542164 420813 418608 544830 417736 561001 700431 539488 561532 705831 536986 664531 785793 707351 664524 777386 718405 831840 933572 780897 831597 929916 782602 853696 915769 926792 853544 904752 943687 967775 990118 906395 967732 976404 914929 895947 868857 977779 896001 863709 986720 921344 850139 859764 921513 833732 871090 773252 666655 835945 773421 667766 834289 706495 566410 668001 706471 563302 670863 541253 411513 557122 540982 413663 551512 417236 290716 422337 416532 296507 416406 309503 216924 286824 309149 216412 286294 192910 122381 223778 192837 127159 217852 154050 107254 121327 154038 106054 122387 74630.3 48372.6 109187 74753.2 49570.6 106095 74630.5 54228.9 48029.5 74710.8 54057 47310.8 32769.5 31561.1 53938.2 32771.5 31271.9 53051.1 38897.1 32384.2 31477.2 38942.8 34544.6 28755.5 34782.1 43630.2 32450.3 34815.2 45576.1 30485.8 43872.3 71434.2 44233 43872.3 78703.1 39242.3 73749 41515.1 71992.5 58673.1 43918.7 66082.9 45581.4 33565.7 45916.5 45506.2 35185.5 45289.5 45081.8 40697.2 35477.9 45012.2 42810.8 32734.4 30538.1 33520.2 43229.3 30556.6 34007.2 43711.8 36852.7 31868.4 35404.8 36927.3 35179.3 33733.5 46126.6 74523.4 34873.9 46056.1 77520.7 35826 43943.5 86610.1 75949.7 43849.6 86251 76799.9 122121 189294 91339 122020 196657 85857.8 154789 256389 189120 154615 255176 190822 291228 412357 267990 291648 421889 258855 401709 559954 408616 402839 565632 407628 560787 712320 575788 561318 709522 578165 745241 888612 709871 745272 891872 707768 831846 943762 886953 831604 929228 909312 980871 1.05119e+06 936704 980739 1.04351e+06 940244 967974 991292 1.04094e+06 967931 983382 1.05506e+06 1.02743e+06 1.00843e+06 980421 1.02742e+06 988061 992730 921538 842688 994182 921707 842603 996354 885724 759309 835356 886126 744057 846727 706212 554324 742122 706188 556852 734748 574134 402522 565748 573067 408996 560125 417393 285070 394797 416689 284252 393533 259684 154657 295746 259353 162770 286405 193164 122933 153884 193092 121309 155304 84521.7 47264.7 125407 84752.5 49356.1 120328 74613.2 48293.6 47423.5 74736.2 48667.2 45817.4 31817.7 39212 48355.6 31752.2 37930.5 47029.2 32731.4 29838.7 38360.7 32733.3 32247.3 35432.4 42637.3 45263.9 31059.3 42618.2 45507.6 30264.2 34789.2 41773.3 44023.3 34822.2 45500.6 42502.6 45593.4 56021.4 45982.2 45780 58769 43205.9 72518 45795.6 38140 57026.8 45899.2 38373.7 42416.2 49415.4 45675.8 42131.8 50161.2 43004.2 45118.1 42921.5 51466.8 45048.5 43358.7 51233 53998.1 48459.7 43589.6 53983.6 50728.9 40941.2 36893.3 33988.8 51073.9 36968 34221.8 52047.9 39925.2 24723.9 36177.5 40047.1 30537 32625.8 43825.9 83425.9 29987.2 43732.3 88729.4 31703.4 40670.3 105070 87376.1 40471.2 104719 88433.2 154971 252443 112492 154797 265249 101874 205024 356615 252265 204740 353884 256001 402236 568380 376185 403365 580275 363347 568970 759656 564059 571559 769028 563345 744773 905037 771576 744804 888634 794595 926064 1.03508e+06 903744 925419 1.03682e+06 899960 981250 1.05811e+06 1.02528e+06 981118 1.04683e+06 1.04681e+06 1.05186e+06 1.0858e+06 1.05175e+06 1.05205e+06 1.07509e+06 1.05567e+06 1.02762e+06 1.00342e+06 1.07951e+06 1.02761e+06 1.00485e+06 1.08213e+06 1.01275e+06 955332 991377 1.01256e+06 924774 1.00941e+06 885925 746485 935471 886326 749706 930645 776330 573915 747731 776266 574028 749521 573908 392085 556104 572841 389263 553016 363974 204821 409739 362435 219169 394172 260240 156544 203519 259910 153836 205933 101089 44265.1 159410 101642 49224.1 150639 84458.1 47406.7 46657.9 84689 48777 43861.7 25552.5 43134.6 47651.3 25365.3 41024.7 45295 31794.8 35670.2 41371.9 31728.8 39048.1 37705.8 50475.1 54681.6 37937.9 50431.9 54557 37896.3 42678.6 43024.1 53629.7 42659.6 45285.6 52216.9 50882 42591.5 45468.6 50967.1 42245.7 44995.1 45704.9 52765.2 41052.5 45891.3 56674.3 40723.9 38028.9 33931.5 36148.8 16615.9 33615.7 35069.9 42539.9 50896.9 33068.4 42255.9 50931.8 33504.5 47782.9 55014.2 50984 47688.8 55610.9 49327.4 54067.2 50792.2 57073.9 54052.6 51218.6 56268.6 58726.6 52025.2 51211.9 58677.1 53323.4 48054.8 40075.3 28742.6 54984.1 40197.1 29097.5 55935.3 42566.2 12906.5 31962 42620.4 16921 25111.7 40377.6 97530.6 17360.3 40179.6 106904 23850.6 28415.3 121235 107148 27777.7 120726 109002 205532 348796 134862 205248 373960 113306 273915 512216 345136 274358 505728 356836 568988 777274 541348 571578 779148 534089 792900 937996 787008 791041 942902 781641 926946 1.05066e+06 919235 926300 1.03065e+06 958769 973383 1.03199e+06 1.05262e+06 974066 1.03944e+06 1.03976e+06 1.05179e+06 1.0855e+06 1.0331e+06 1.05197e+06 1.09142e+06 1.03375e+06 997997 1.01412e+06 1.08421e+06 997796 998336 1.08937e+06 1.01328e+06 944172 1.01739e+06 1.01309e+06 958188 1.00454e+06 920803 814381 926044 923385 774811 952393 775506 557809 771818 775443 551895 760610 536089 278343 582762 529070 302811 557182 365277 209142 269067 363739 202607 275618 112002 27412 211819 113912 39279.7 195416 100862 46908.1 36641.5 101416 49231.6 35230.1 17901.9 45129.8 45858.8 17661.5 41941.8 41297 25613.7 37110.6 40412.6 25425.2 41915 38723.5 54657 59081.4 41173.7 54665.1 59344.7 41243.5 50587.5 52052.5 57768.1 50544.3 54231.6 56811.1 56250.1 47608.7 54478.6 56330.1 48344.4 53877.3 50938.4 40796.2 47303.2 51023.5 42544.1 46897.5 33236.2 20109.6 41296.6 33492.1 16516 43522.4 36185.2 33817.7 2264.9 15108.2 30944.8 5952.86 18478.3 35301.8 33710.5 18577.7 35246.1 33065.4 47827.7 55175 36364.8 47733.6 56884.6 33925.9 49101.1 60073.3 56303.6 48996.6 59369.7 54859.9 58862.7 54279.3 62678 58813.2 55733.5 60219.8 72049.1 78039 53677.5 71934.3 74478.1 51022.3 42892.6 20034.5 79864 42947.1 19079.8 79820.1 83951.7 74245.9 17788.5 83763 59898.4 9558.13 27462.6 103163 65899.2 26826 119143 74415.6 55388.7 113590 126495 53969.1 106168 132356 275781 497374 144059 276223 554549 106868 385970 700985 493987 396672 723599 522981 792283 968416 710566 790425 922602 780932 831724 773041 988030 801678 851317 940881 973582 1.03833e+06 826849 974265 1.04934e+06 795695 827008 783425 1.05706e+06 822912 844331 1.02832e+06 998102 1.00065e+06 853408 997901 1.03606e+06 802500 802082 789216 1.01234e+06 812968 799586 1.01668e+06 924622 801013 861093 927215 819434 829056 745196 406657 791620 775484 430782 778261 537988 290566 352514 530966 262239 384157 94061.3 39124.4 288831 94293.3 22977.8 250954 111202 41740.2 25617.8 113115 41200.5 59687.7 76261 82935.5 31556.7 76848.4 79949.1 24804.2 18442.3 36950.5 73692.8 18201 40570.5 80846.3 80241.7 71313.1 43364.9 80420.1 72854.5 42859.6 54865.3 56252.1 68512 54873.4 58312.1 70214.1 61108 47843.2 59623.4 61209.9 50675.8 57781.4 56329.8 47013.2 48392.6 56409.8 47820.4 48730.3 35186.9 17635.4 47435.1 35259.9 18434.9 46711.1 33305.3 17834.4 20331.4 33560.9 15617 19518.1 1132.86 2472.76 2162.54 2579.06 6036.23 5655.99 18398.7 32091.4 6713.43 18498.2 36174.7 3030.29 17444.9 42522.2 36541.7 19041.1 43570.2 35883.3 49249.8 59457.3 48109.1 49145.4 63542.9 45173.8 72102.1 102565 60072.6 74359.7 101252 59764.5 72183.7 79276.9 107816 72068.9 82542 106638 135641 166474 75731.8 138907 162787 77651.1 84218.2 75780.3 173336 84030.2 76331.8 173622 200141 225897 61523.8 206768 217694 70703.1 56478.2 66654.3 243068 55288.7 90354.5 251481 267430 264868 149880 302092 110708 179566 391753 656029 86589.4 402442 798355 174399 659526 325253 794674 416481 728757 671078 851226 699652 671844 821655 860012 354732 648847 304691 814508 593091 599439 697877 843880 691293 598287 839873 837607 338862 699310 269778 862049 641169 535668 749277 814195 691043 556759 824884 842965 290752 705924 173384 906828 611589 387612 864500 766525 490961 567787 796741 339032 442002 369971 248321 422346 318089 178441 297731 88904 62683.4 170781 89142.2 18011.4 265039 246316 205688 50470.1 236348 202896 54903.1 76453.2 80631.6 188426 77046.6 75477.9 198329 172811 139336 85634.2 168614 140004 82791.8 80391.5 70046.6 131947 80570.1 69371.6 134579 106052 74935.9 74350.3 103460 76814 70661.5 61242 48441.8 71281.9 61343.8 49304.8 71581.2 44736.3 19256.4 51196.5 42711.2 23825.3 46706.6 35320 20666.4 20780.9 35392.9 19863.2 17838 1501.82 4824.61 16220.3 1385.5 4542.05 15699.9 1114.92
