# vtk DataFile Version 2.0
Exported by getfem++
ASCII
DATASET UNSTRUCTURED_GRID
POINTS 3042 float
 2.32519 23.6527 0 1.57729 22.843 0 2.58204 22.5719 0
 3.19313 24.6427 0 2.32519 23.6527 0 3.41882 23.3265 0
 2.32519 23.6527 0 3.19313 24.6427 0 1.95911 24.7555 0
 1.25984 23.839 0 2.32519 23.6527 0 1.95911 24.7555 0
 3.41882 23.3265 0 2.32519 23.6527 0 2.58204 22.5719 0
 2.32519 23.6527 0 1.25984 23.839 0 1.57729 22.843 0
 1.57729 22.843 0 1.25984 23.839 0 0.526293 22.9827 0
 3.41882 23.3265 0 2.58204 22.5719 0 3.55474 22.1669 0
 4.14111 25.0429 0 3.19313 24.6427 0 4.28341 24.1159 0
 3.19313 24.6427 0 3.41882 23.3265 0 4.28341 24.1159 0
 3.19313 24.6427 0 2.58145 25.7552 0 1.95911 24.7555 0
 2.58145 25.7552 0 3.19313 24.6427 0 3.62776 25.7849 0
 3.19313 24.6427 0 4.14111 25.0429 0 3.62776 25.7849 0
 3.41882 23.3265 0 4.5938 22.8817 0 4.28341 24.1159 0
 4.5938 22.8817 0 3.41882 23.3265 0 3.55474 22.1669 0
 2.58145 25.7552 0 1.50453 25.8047 0 1.95911 24.7555 0
 1.50453 25.8047 0 0.898132 24.8552 0 1.95911 24.7555 0
 0.898132 24.8552 0 1.25984 23.839 0 1.95911 24.7555 0
 1.25984 23.839 0 0.898132 24.8552 0 0.284716 23.9696 0
 0.526293 22.9827 0 1.25984 23.839 0 0.284716 23.9696 0
 0.526293 22.9827 0 0.284716 23.9696 0 -0.526293 22.9827 0
 4.5938 22.8817 0 3.55474 22.1669 0 4.45646 21.6438 0
 4.99229 24.8978 0 4.14111 25.0429 0 4.28341 24.1159 0
 4.14111 25.0429 0 4.99229 24.8978 0 4.60869 25.7883 0
 3.62776 25.7849 0 4.14111 25.0429 0 4.60869 25.7883 0
 4.5938 22.8817 0 5.34644 23.9322 0 4.28341 24.1159 0
 5.34644 23.9322 0 4.99229 24.8978 0 4.28341 24.1159 0
 1.50453 25.8047 0 2.58145 25.7552 0 2.09468 26.776 0
 2.09468 26.776 0 2.58145 25.7552 0 3.14157 26.7235 0
 3.14157 26.7235 0 2.58145 25.7552 0 3.62776 25.7849 0
 4.15794 26.6786 0 3.14157 26.7235 0 3.62776 25.7849 0
 4.15794 26.6786 0 3.62776 25.7849 0 4.60869 25.7883 0
 5.34644 23.9322 0 4.5938 22.8817 0 5.80631 22.9589 0
 4.5938 22.8817 0 4.45646 21.6438 0 5.30773 22.0873 0
 5.80631 22.9589 0 4.5938 22.8817 0 5.30773 22.0873 0
 1.50453 25.8047 0 2.09468 26.776 0 1.03483 26.8314 0
 0.464135 25.8549 0 1.50453 25.8047 0 1.03483 26.8314 0
 0.898132 24.8552 0 1.50453 25.8047 0 0.464135 25.8549 0
 0.898132 24.8552 0 0.464135 25.8549 0 -0.0775062 24.934 0
 0.898132 24.8552 0 -0.0775062 24.934 0 0.284716 23.9696 0
 0.284716 23.9696 0 -0.552735 24.1615 0 -0.526293 22.9827 0
 -0.0775062 24.934 0 -0.552735 24.1615 0 0.284716 23.9696 0
 -0.552735 24.1615 0 -1.373 23.9035 0 -0.526293 22.9827 0
 -0.526293 22.9827 0 -1.373 23.9035 0 -1.57729 22.843 0
 4.45646 21.6438 0 5.40081 20.9018 0 5.30773 22.0873 0
 4.99229 24.8978 0 5.34644 23.9322 0 5.96818 24.8087 0
 4.60869 25.7883 0 4.99229 24.8978 0 5.56761 25.7112 0
 4.99229 24.8978 0 5.96818 24.8087 0 5.56761 25.7112 0
 5.16723 26.6306 0 4.60869 25.7883 0 5.56761 25.7112 0
 4.15794 26.6786 0 4.60869 25.7883 0 5.16723 26.6306 0
 5.34644 23.9322 0 5.80631 22.9589 0 6.40611 23.8836 0
 5.96818 24.8087 0 5.34644 23.9322 0 6.40611 23.8836 0
 2.09468 26.776 0 2.68712 27.7196 0 1.6368 27.8125 0
 2.09468 26.776 0 1.6368 27.8125 0 1.03483 26.8314 0
 2.09468 26.776 0 3.14157 26.7235 0 2.68712 27.7196 0
 3.14157 26.7235 0 4.15794 26.6786 0 3.70876 27.6224 0
 2.68712 27.7196 0 3.14157 26.7235 0 3.70876 27.6224 0
 4.15794 26.6786 0 5.16723 26.6306 0 4.70715 27.5405 0
 3.70876 27.6224 0 4.15794 26.6786 0 4.70715 27.5405 0
 5.80631 22.9589 0 6.88246 22.9525 0 6.40611 23.8836 0
 5.80631 22.9589 0 6.281 22.0074 0 6.88246 22.9525 0
 6.281 22.0074 0 5.80631 22.9589 0 5.30773 22.0873 0
 5.40081 20.9018 0 6.281 22.0074 0 5.30773 22.0873 0
 -0.0265845 26.8586 0 0.464135 25.8549 0 1.03483 26.8314 0
 0.545542 27.8877 0 -0.0265845 26.8586 0 1.03483 26.8314 0
 1.6368 27.8125 0 0.545542 27.8877 0 1.03483 26.8314 0
 0.464135 25.8549 0 -0.0265845 26.8586 0 -0.552448 25.8666 0
 -0.0775062 24.934 0 0.464135 25.8549 0 -0.552448 25.8666 0
 -1.03072 24.9136 0 -0.552735 24.1615 0 -0.0775062 24.934 0
 -1.03072 24.9136 0 -0.0775062 24.934 0 -0.552448 25.8666 0
 -1.373 23.9035 0 -0.552735 24.1615 0 -1.03072 24.9136 0
 -2.36626 23.6702 0 -1.373 23.9035 0 -2.03167 24.7872 0
 -1.373 23.9035 0 -2.36626 23.6702 0 -1.57729 22.843 0
 -1.373 23.9035 0 -1.03072 24.9136 0 -2.03167 24.7872 0
 -2.36626 23.6702 0 -2.58204 22.5719 0 -1.57729 22.843 0
 6.75459 21.0678 0 6.281 22.0074 0 5.40081 20.9018 0
 6.75459 21.0678 0 5.40081 20.9018 0 6.14682 20.1202 0
 6.97765 24.7827 0 5.96818 24.8087 0 6.40611 23.8836 0
 5.96818 24.8087 0 6.52118 25.637 0 5.56761 25.7112 0
 6.52118 25.637 0 5.96818 24.8087 0 6.97765 24.7827 0
 6.16032 26.5203 0 5.16723 26.6306 0 5.56761 25.7112 0
 6.52118 25.637 0 6.16032 26.5203 0 5.56761 25.7112 0
 5.84826 27.6042 0 5.16723 26.6306 0 6.16032 26.5203 0
 5.16723 26.6306 0 5.84826 27.6042 0 4.70715 27.5405 0
 7.46476 23.88 0 6.97765 24.7827 0 6.40611 23.8836 0
 6.88246 22.9525 0 7.46476 23.88 0 6.40611 23.8836 0
 2.68712 27.7196 0 3.70876 27.6224 0 3.28878 28.6227 0
 2.26656 28.771 0 2.68712 27.7196 0 3.28878 28.6227 0
 2.68712 27.7196 0 2.26656 28.771 0 1.6368 27.8125 0
 1.21044 28.8968 0 0.545542 27.8877 0 1.6368 27.8125 0
 2.26656 28.771 0 1.21044 28.8968 0 1.6368 27.8125 0
 3.70876 27.6224 0 4.27718 28.455 0 3.28878 28.6227 0
 4.27718 28.455 0 3.70876 27.6224 0 4.70715 27.5405 0
 5.14811 28.3057 0 4.27718 28.455 0 4.70715 27.5405 0
 5.84826 27.6042 0 5.14811 28.3057 0 4.70715 27.5405 0
 7.38032 22.0308 0 7.96911 22.972 0 6.88246 22.9525 0
 7.96911 22.972 0 7.46476 23.88 0 6.88246 22.9525 0
 6.281 22.0074 0 7.38032 22.0308 0 6.88246 22.9525 0
 6.75459 21.0678 0 7.38032 22.0308 0 6.281 22.0074 0
 -0.0265845 26.8586 0 -1.08286 26.8371 0 -0.552448 25.8666 0
 -0.575992 27.8886 0 -1.08286 26.8371 0 -0.0265845 26.8586 0
 0.545542 27.8877 0 -0.575992 27.8886 0 -0.0265845 26.8586 0
 0.545542 27.8877 0 -0.00489492 29.0545 0 -0.575992 27.8886 0
 0.545542 27.8877 0 1.21044 28.8968 0 -0.00489492 29.0545 0
 -1.57142 25.8251 0 -1.03072 24.9136 0 -0.552448 25.8666 0
 -1.08286 26.8371 0 -1.57142 25.8251 0 -0.552448 25.8666 0
 -1.03072 24.9136 0 -1.57142 25.8251 0 -2.03167 24.7872 0
 -3.21983 24.6551 0 -2.36626 23.6702 0 -2.03167 24.7872 0
 -2.36626 23.6702 0 -3.21983 24.6551 0 -3.43273 23.3309 0
 -2.36626 23.6702 0 -3.43273 23.3309 0 -2.58204 22.5719 0
 -1.57142 25.8251 0 -2.61949 25.7686 0 -2.03167 24.7872 0
 -2.61949 25.7686 0 -3.21983 24.6551 0 -2.03167 24.7872 0
 -2.58204 22.5719 0 -3.43273 23.3309 0 -3.55474 22.1669 0
 7.38032 22.0308 0 6.75459 21.0678 0 7.90996 21.1223 0
 7.32453 20.1718 0 6.75459 21.0678 0 6.14682 20.1202 0
 6.75459 21.0678 0 7.32453 20.1718 0 7.90996 21.1223 0
 6.77308 19.2574 0 7.32453 20.1718 0 6.14682 20.1202 0
 7.48921 25.6748 0 6.52118 25.637 0 6.97765 24.7827 0
 7.46476 23.88 0 8.02684 24.8101 0 6.97765 24.7827 0
 8.02684 24.8101 0 7.48921 25.6748 0 6.97765 24.7827 0
 6.16032 26.5203 0 6.52118 25.637 0 6.97762 26.3402 0
 6.52118 25.637 0 7.48921 25.6748 0 6.97762 26.3402 0
 6.92339 27.204 0 6.16032 26.5203 0 6.97762 26.3402 0
 6.92339 27.204 0 5.84826 27.6042 0 6.16032 26.5203 0
 5.84826 27.6042 0 5.98196 28.7556 0 5.14811 28.3057 0
 5.84826 27.6042 0 6.92339 27.204 0 6.89648 28.3206 0
 5.98196 28.7556 0 5.84826 27.6042 0 6.89648 28.3206 0
 7.46476 23.88 0 7.96911 22.972 0 8.53784 23.9005 0
 8.02684 24.8101 0 7.46476 23.88 0 8.53784 23.9005 0
 2.89141 29.7187 0 2.26656 28.771 0 3.28878 28.6227 0
 3.90279 29.4834 0 2.89141 29.7187 0 3.28878 28.6227 0
 4.27718 28.455 0 3.90279 29.4834 0 3.28878 28.6227 0
 1.8908 29.8804 0 2.26656 28.771 0 2.89141 29.7187 0
 1.8908 29.8804 0 1.21044 28.8968 0 2.26656 28.771 0
 -0.00489492 29.0545 0 1.21044 28.8968 0 0.917934 29.9719 0
 1.21044 28.8968 0 1.8908 29.8804 0 0.917934 29.9719 0
 4.27718 28.455 0 5.14811 28.3057 0 4.92692 29.1678 0
 3.90279 29.4834 0 4.27718 28.455 0 4.92692 29.1678 0
 5.14811 28.3057 0 5.98196 28.7556 0 4.92692 29.1678 0
 7.96911 22.972 0 7.38032 22.0308 0 8.49356 22.0722 0
 8.49356 22.0722 0 7.38032 22.0308 0 7.90996 21.1223 0
 9.06516 23.0124 0 7.96911 22.972 0 8.49356 22.0722 0
 7.96911 22.972 0 9.06516 23.0124 0 8.53784 23.9005 0
 -1.08286 26.8371 0 -1.66321 27.8155 0 -2.13024 26.7831 0
 -1.08286 26.8371 0 -0.575992 27.8886 0 -1.66321 27.8155 0
 -1.57142 25.8251 0 -1.08286 26.8371 0 -2.13024 26.7831 0
 -0.575992 27.8886 0 -1.22388 28.8979 0 -1.66321 27.8155 0
 -0.575992 27.8886 0 -0.00489492 29.0545 0 -1.22388 28.8979 0
 -1.22388 28.8979 0 -0.00489492 29.0545 0 -0.917934 29.9719 0
 -0.00489492 29.0545 0 4.46275e-12 30 0 -0.917934 29.9719 0
 4.46275e-12 30 0 -0.00489492 29.0545 0 0.917934 29.9719 0
 -2.61949 25.7686 0 -1.57142 25.8251 0 -2.13024 26.7831 0
 -3.64857 25.7922 0 -3.21983 24.6551 0 -2.61949 25.7686 0
 -3.21983 24.6551 0 -3.64857 25.7922 0 -4.1564 25.0499 0
 -4.29491 24.1233 0 -3.21983 24.6551 0 -4.1564 25.0499 0
 -3.43273 23.3309 0 -3.21983 24.6551 0 -4.29491 24.1233 0
 -3.43273 23.3309 0 -4.59781 22.8844 0 -3.55474 22.1669 0
 -4.59781 22.8844 0 -3.43273 23.3309 0 -4.29491 24.1233 0
 -3.64857 25.7922 0 -2.61949 25.7686 0 -3.16455 26.7294 0
 -2.61949 25.7686 0 -2.13024 26.7831 0 -3.16455 26.7294 0
 -3.55474 22.1669 0 -4.59781 22.8844 0 -4.45646 21.6438 0
 9.04007 21.1788 0 8.49356 22.0722 0 7.90996 21.1223 0
 9.04007 21.1788 0 7.90996 21.1223 0 8.47017 20.2188 0
 7.90996 21.1223 0 7.32453 20.1718 0 8.47017 20.2188 0
 7.32453 20.1718 0 7.89961 19.245 0 8.47017 20.2188 0
 7.32453 20.1718 0 6.77308 19.2574 0 7.89961 19.245 0
 7.89961 19.245 0 6.77308 19.2574 0 7.27687 18.3237 0
 8.02684 24.8101 0 8.63076 25.8696 0 7.48921 25.6748 0
 7.48921 25.6748 0 7.79264 26.6589 0 6.97762 26.3402 0
 8.63076 25.8696 0 7.79264 26.6589 0 7.48921 25.6748 0
 8.63076 25.8696 0 8.02684 24.8101 0 9.08233 24.8046 0
 8.02684 24.8101 0 8.53784 23.9005 0 9.08233 24.8046 0
 7.79264 26.6589 0 6.92339 27.204 0 6.97762 26.3402 0
 6.92339 27.204 0 7.88645 27.7595 0 6.89648 28.3206 0
 7.79264 26.6589 0 7.88645 27.7595 0 6.92339 27.204 0
 9.06516 23.0124 0 9.61396 23.9394 0 8.53784 23.9005 0
 8.53784 23.9005 0 9.61396 23.9394 0 9.08233 24.8046 0
 9.60975 22.1292 0 9.06516 23.0124 0 8.49356 22.0722 0
 9.60975 22.1292 0 8.49356 22.0722 0 9.04007 21.1788 0
 9.06516 23.0124 0 9.60975 22.1292 0 10.1725 23.0759 0
 9.06516 23.0124 0 10.1725 23.0759 0 9.61396 23.9394 0
 -2.13024 26.7831 0 -1.66321 27.8155 0 -2.70718 27.7234 0
 -1.22388 28.8979 0 -2.27856 28.7729 0 -1.66321 27.8155 0
 -1.66321 27.8155 0 -2.27856 28.7729 0 -2.70718 27.7234 0
 -3.16455 26.7294 0 -2.13024 26.7831 0 -2.70718 27.7234 0
 -1.8908 29.8804 0 -1.22388 28.8979 0 -0.917934 29.9719 0
 -2.27856 28.7729 0 -1.22388 28.8979 0 -1.8908 29.8804 0
 -4.17224 26.6836 0 -3.64857 25.7922 0 -3.16455 26.7294 0
 -4.62126 25.7935 0 -3.64857 25.7922 0 -4.17224 26.6836 0
 -3.64857 25.7922 0 -4.62126 25.7935 0 -4.1564 25.0499 0
 -5.00214 24.9032 0 -4.29491 24.1233 0 -4.1564 25.0499 0
 -4.62126 25.7935 0 -5.00214 24.9032 0 -4.1564 25.0499 0
 -5.35242 23.9367 0 -4.59781 22.8844 0 -4.29491 24.1233 0
 -5.00214 24.9032 0 -5.35242 23.9367 0 -4.29491 24.1233 0
 -4.45646 21.6438 0 -4.59781 22.8844 0 -5.30894 22.0886 0
 -4.59781 22.8844 0 -5.80874 22.961 0 -5.30894 22.0886 0
 -4.59781 22.8844 0 -5.35242 23.9367 0 -5.80874 22.961 0
 -3.72236 27.6261 0 -3.16455 26.7294 0 -2.70718 27.7234 0
 -3.72236 27.6261 0 -4.17224 26.6836 0 -3.16455 26.7294 0
 -5.40081 20.9018 0 -4.45646 21.6438 0 -5.30894 22.0886 0
 10.163 21.2425 0 9.60975 22.1292 0 9.04007 21.1788 0
 9.60215 20.2846 0 10.163 21.2425 0 9.04007 21.1788 0
 9.60215 20.2846 0 9.04007 21.1788 0 8.47017 20.2188 0
 9.05723 19.3046 0 9.60215 20.2846 0 8.47017 20.2188 0
 7.89961 19.245 0 9.05723 19.3046 0 8.47017 20.2188 0
 8.52026 18.1852 0 7.89961 19.245 0 7.27687 18.3237 0
 8.52026 18.1852 0 9.05723 19.3046 0 7.89961 19.245 0
 7.65049 17.3388 0 8.52026 18.1852 0 7.27687 18.3237 0
 8.63076 25.8696 0 9.58525 25.5519 0 9.62185 26.5074 0
 9.58525 25.5519 0 8.63076 25.8696 0 9.08233 24.8046 0
 8.63076 25.8696 0 9.62185 26.5074 0 8.83045 27.1253 0
 7.79264 26.6589 0 8.63076 25.8696 0 8.83045 27.1253 0
 7.88645 27.7595 0 7.79264 26.6589 0 8.83045 27.1253 0
 10.1123 24.832 0 9.58525 25.5519 0 9.08233 24.8046 0
 9.61396 23.9394 0 10.1123 24.832 0 9.08233 24.8046 0
 9.61396 23.9394 0 10.1725 23.0759 0 10.7131 24.0188 0
 10.1123 24.832 0 9.61396 23.9394 0 10.7131 24.0188 0
 9.60975 22.1292 0 10.163 21.2425 0 10.7339 22.1991 0
 10.1725 23.0759 0 9.60975 22.1292 0 10.7339 22.1991 0
 10.1725 23.0759 0 10.7339 22.1991 0 11.3102 23.1658 0
 10.7131 24.0188 0 10.1725 23.0759 0 11.3102 23.1658 0
 -3.29799 28.6246 0 -3.72236 27.6261 0 -2.70718 27.7234 0
 -2.27856 28.7729 0 -3.29799 28.6246 0 -2.70718 27.7234 0
 -2.27856 28.7729 0 -1.8908 29.8804 0 -2.89141 29.7187 0
 -3.29799 28.6246 0 -2.27856 28.7729 0 -2.89141 29.7187 0
 -4.17224 26.6836 0 -4.71537 27.5439 0 -5.17575 26.6346 0
 -4.71537 27.5439 0 -4.17224 26.6836 0 -3.72236 27.6261 0
 -4.62126 25.7935 0 -4.17224 26.6836 0 -5.17575 26.6346 0
 -5.57488 25.7152 0 -5.00214 24.9032 0 -4.62126 25.7935 0
 -5.57488 25.7152 0 -4.62126 25.7935 0 -5.17575 26.6346 0
 -5.57488 25.7152 0 -5.97337 24.8124 0 -5.00214 24.9032 0
 -5.97337 24.8124 0 -5.35242 23.9367 0 -5.00214 24.9032 0
 -5.35242 23.9367 0 -6.40897 23.8861 0 -5.80874 22.961 0
 -5.35242 23.9367 0 -5.97337 24.8124 0 -6.40897 23.8861 0
 -5.80874 22.961 0 -6.28202 22.0082 0 -5.30894 22.0886 0
 -6.28202 22.0082 0 -5.40081 20.9018 0 -5.30894 22.0886 0
 -6.88363 22.9536 0 -6.28202 22.0082 0 -5.80874 22.961 0
 -6.40897 23.8861 0 -6.88363 22.9536 0 -5.80874 22.961 0
 -3.72236 27.6261 0 -3.29799 28.6246 0 -4.28326 28.4566 0
 -4.71537 27.5439 0 -3.72236 27.6261 0 -4.28326 28.4566 0
 -5.40081 20.9018 0 -6.75483 21.068 0 -6.14682 20.1202 0
 -6.75483 21.068 0 -5.40081 20.9018 0 -6.28202 22.0082 0
 10.163 21.2425 0 10.714 20.3503 0 11.2835 21.3068 0
 10.163 21.2425 0 11.2835 21.3068 0 10.7339 22.1991 0
 10.163 21.2425 0 9.60215 20.2846 0 10.714 20.3503 0
 9.60215 20.2846 0 9.05723 19.3046 0 10.1707 19.3993 0
 10.714 20.3503 0 9.60215 20.2846 0 10.1707 19.3993 0
 10.1707 19.3993 0 9.05723 19.3046 0 9.67929 18.4616 0
 9.05723 19.3046 0 8.52026 18.1852 0 9.67929 18.4616 0
 8.68156 17.0172 0 8.52026 18.1852 0 7.65049 17.3388 0
 9.35713 17.6255 0 8.52026 18.1852 0 8.68156 17.0172 0
 8.52026 18.1852 0 9.35713 17.6255 0 9.67929 18.4616 0
 8.68156 17.0172 0 7.65049 17.3388 0 7.91528 16.1612 0
 9.58525 25.5519 0 10.1123 24.832 0 10.4705 25.741 0
 9.62185 26.5074 0 9.58525 25.5519 0 10.4705 25.741 0
 10.4705 25.741 0 10.1123 24.832 0 11.2128 24.9635 0
 10.1123 24.832 0 10.7131 24.0188 0 11.2128 24.9635 0
 10.7131 24.0188 0 11.8887 24.1465 0 11.2128 24.9635 0
 11.8887 24.1465 0 10.7131 24.0188 0 11.3102 23.1658 0
 11.2835 21.3068 0 11.8787 22.2811 0 10.7339 22.1991 0
 10.7339 22.1991 0 11.8787 22.2811 0 11.3102 23.1658 0
 11.8787 22.2811 0 12.5042 23.2853 0 11.3102 23.1658 0
 12.5042 23.2853 0 11.8887 24.1465 0 11.3102 23.1658 0
 -3.90279 29.4834 0 -3.29799 28.6246 0 -2.89141 29.7187 0
 -3.29799 28.6246 0 -3.90279 29.4834 0 -4.28326 28.4566 0
 -5.85151 27.6062 0 -4.71537 27.5439 0 -5.15163 28.3073 0
 -5.17575 26.6346 0 -4.71537 27.5439 0 -5.85151 27.6062 0
 -4.71537 27.5439 0 -4.28326 28.4566 0 -5.15163 28.3073 0
 -6.16432 26.5221 0 -5.17575 26.6346 0 -5.85151 27.6062 0
 -6.16432 26.5221 0 -5.57488 25.7152 0 -5.17575 26.6346 0
 -5.57488 25.7152 0 -6.16432 26.5221 0 -6.5243 25.6392 0
 -5.97337 24.8124 0 -5.57488 25.7152 0 -6.5243 25.6392 0
 -6.97963 24.7844 0 -5.97337 24.8124 0 -6.5243 25.6392 0
 -5.97337 24.8124 0 -6.97963 24.7844 0 -6.40897 23.8861 0
 -6.88363 22.9536 0 -6.40897 23.8861 0 -7.46561 23.8808 0
 -6.40897 23.8861 0 -6.97963 24.7844 0 -7.46561 23.8808 0
 -6.28202 22.0082 0 -6.88363 22.9536 0 -7.3807 22.0311 0
 -6.75483 21.068 0 -6.28202 22.0082 0 -7.3807 22.0311 0
 -6.88363 22.9536 0 -7.96937 22.9722 0 -7.3807 22.0311 0
 -7.96937 22.9722 0 -6.88363 22.9536 0 -7.46561 23.8808 0
 -4.28326 28.4566 0 -4.92692 29.1678 0 -5.15163 28.3073 0
 -3.90279 29.4834 0 -4.92692 29.1678 0 -4.28326 28.4566 0
 -6.75483 21.068 0 -7.32456 20.1718 0 -6.14682 20.1202 0
 -7.91003 21.1224 0 -6.75483 21.068 0 -7.3807 22.0311 0
 -6.75483 21.068 0 -7.91003 21.1224 0 -7.32456 20.1718 0
 -6.14682 20.1202 0 -7.32456 20.1718 0 -6.77308 19.2574 0
 11.2835 21.3068 0 10.714 20.3503 0 11.8147 20.4044 0
 10.714 20.3503 0 11.2554 19.4625 0 11.8147 20.4044 0
 11.2554 19.4625 0 10.714 20.3503 0 10.1707 19.3993 0
 11.8787 22.2811 0 11.2835 21.3068 0 12.411 21.3692 0
 12.411 21.3692 0 11.2835 21.3068 0 11.8147 20.4044 0
 10.7224 18.5343 0 10.1707 19.3993 0 9.67929 18.4616 0
 11.2554 19.4625 0 10.1707 19.3993 0 10.7224 18.5343 0
 10.7224 18.5343 0 9.67929 18.4616 0 10.2268 17.6479 0
 9.67929 18.4616 0 9.35713 17.6255 0 10.2268 17.6479 0
 9.00214 15.9965 0 8.68156 17.0172 0 7.91528 16.1612 0
 8.68156 17.0172 0 9.00214 15.9965 0 9.67885 16.8292 0
 9.35713 17.6255 0 8.68156 17.0172 0 9.67885 16.8292 0
 9.35713 17.6255 0 9.67885 16.8292 0 10.2268 17.6479 0
 8 15 0 9.00214 15.9965 0 7.91528 16.1612 0
 11.8787 22.2811 0 12.411 21.3692 0 13.0594 22.3792 0
 12.5042 23.2853 0 11.8787 22.2811 0 13.0594 22.3792 0
 -5.98196 28.7556 0 -5.85151 27.6062 0 -5.15163 28.3073 0
 -5.85151 27.6062 0 -6.89648 28.3206 0 -6.92479 27.2043 0
 -6.89648 28.3206 0 -5.85151 27.6062 0 -5.98196 28.7556 0
 -6.16432 26.5221 0 -5.85151 27.6062 0 -6.92479 27.2043 0
 -4.92692 29.1678 0 -5.98196 28.7556 0 -5.15163 28.3073 0
 -6.16432 26.5221 0 -6.97938 26.3411 0 -6.5243 25.6392 0
 -6.97938 26.3411 0 -6.16432 26.5221 0 -6.92479 27.2043 0
 -7.49014 25.6757 0 -6.97963 24.7844 0 -6.5243 25.6392 0
 -6.97938 26.3411 0 -7.49014 25.6757 0 -6.5243 25.6392 0
 -6.97963 24.7844 0 -7.49014 25.6757 0 -8.02722 24.8104 0
 -6.97963 24.7844 0 -8.02722 24.8104 0 -7.46561 23.8808 0
 -8.02722 24.8104 0 -8.53796 23.9006 0 -7.46561 23.8808 0
 -8.53796 23.9006 0 -7.96937 22.9722 0 -7.46561 23.8808 0
 -7.96937 22.9722 0 -8.49362 22.0722 0 -7.3807 22.0311 0
 -8.49362 22.0722 0 -7.91003 21.1224 0 -7.3807 22.0311 0
 -8.49362 22.0722 0 -7.96937 22.9722 0 -9.06518 23.0125 0
 -7.96937 22.9722 0 -8.53796 23.9006 0 -9.06518 23.0125 0
 -8.47018 20.2188 0 -7.89961 19.245 0 -7.32456 20.1718 0
 -7.32456 20.1718 0 -7.89961 19.245 0 -6.77308 19.2574 0
 -7.91003 21.1224 0 -8.47018 20.2188 0 -7.32456 20.1718 0
 -9.04007 21.1788 0 -7.91003 21.1224 0 -8.49362 22.0722 0
 -7.91003 21.1224 0 -9.04007 21.1788 0 -8.47018 20.2188 0
 -7.89961 19.245 0 -7.27687 18.3237 0 -6.77308 19.2574 0
 12.3277 19.5043 0 12.9039 20.44 0 11.8147 20.4044 0
 12.9039 20.44 0 12.411 21.3692 0 11.8147 20.4044 0
 11.2554 19.4625 0 12.3277 19.5043 0 11.8147 20.4044 0
 11.2554 19.4625 0 10.7224 18.5343 0 11.7841 18.5766 0
 12.3277 19.5043 0 11.2554 19.4625 0 11.7841 18.5766 0
 12.411 21.3692 0 13.552 21.4299 0 13.0594 22.3792 0
 12.411 21.3692 0 12.9039 20.44 0 13.552 21.4299 0
 11.2392 17.6617 0 10.7224 18.5343 0 10.2268 17.6479 0
 10.7224 18.5343 0 11.2392 17.6617 0 11.7841 18.5766 0
 9.67885 16.8292 0 10.6858 16.7848 0 10.2268 17.6479 0
 10.6858 16.7848 0 11.2392 17.6617 0 10.2268 17.6479 0
 9.49647 15 0 9.00214 15.9965 0 8 15 0
 9.67885 16.8292 0 9.00214 15.9965 0 10.1062 15.9189 0
 9.00214 15.9965 0 9.49647 15 0 10.1062 15.9189 0
 10.6858 16.7848 0 9.67885 16.8292 0 10.1062 15.9189 0
 9.00214 14.0035 0 8 15 0 7.91528 13.8388 0
 9.00214 14.0035 0 9.49647 15 0 8 15 0
 -6.89648 28.3206 0 -7.88645 27.7595 0 -6.92479 27.2043 0
 -7.79314 26.6591 0 -6.97938 26.3411 0 -6.92479 27.2043 0
 -7.88645 27.7595 0 -7.79314 26.6591 0 -6.92479 27.2043 0
 -7.49014 25.6757 0 -6.97938 26.3411 0 -7.79314 26.6591 0
 -8.63084 25.8697 0 -7.49014 25.6757 0 -7.79314 26.6591 0
 -7.49014 25.6757 0 -8.63084 25.8697 0 -8.02722 24.8104 0
 -9.08236 24.8046 0 -8.53796 23.9006 0 -8.02722 24.8104 0
 -8.63084 25.8697 0 -9.08236 24.8046 0 -8.02722 24.8104 0
 -8.53796 23.9006 0 -9.61397 23.9394 0 -9.06518 23.0125 0
 -9.08236 24.8046 0 -9.61397 23.9394 0 -8.53796 23.9006 0
 -9.60975 22.1292 0 -8.49362 22.0722 0 -9.06518 23.0125 0
 -9.60975 22.1292 0 -9.04007 21.1788 0 -8.49362 22.0722 0
 -10.1725 23.0759 0 -9.60975 22.1292 0 -9.06518 23.0125 0
 -9.61397 23.9394 0 -10.1725 23.0759 0 -9.06518 23.0125 0
 -8.47018 20.2188 0 -9.04007 21.1788 0 -9.60215 20.2846 0
 -9.05723 19.3046 0 -7.89961 19.245 0 -8.47018 20.2188 0
 -9.05723 19.3046 0 -8.47018 20.2188 0 -9.60215 20.2846 0
 -7.89961 19.245 0 -8.52026 18.1852 0 -7.27687 18.3237 0
 -7.89961 19.245 0 -9.05723 19.3046 0 -8.52026 18.1852 0
 -9.04007 21.1788 0 -10.163 21.2425 0 -9.60215 20.2846 0
 -9.04007 21.1788 0 -9.60975 22.1292 0 -10.163 21.2425 0
 -7.27687 18.3237 0 -8.52026 18.1852 0 -7.65049 17.3388 0
 12.9039 20.44 0 12.3277 19.5043 0 13.3562 19.5194 0
 12.3277 19.5043 0 12.8426 18.6141 0 13.3562 19.5194 0
 12.8426 18.6141 0 12.3277 19.5043 0 11.7841 18.5766 0
 13.552 21.4299 0 12.9039 20.44 0 13.9792 20.4388 0
 12.9039 20.44 0 13.3562 19.5194 0 13.9792 20.4388 0
 11.2392 17.6617 0 12.3215 17.6655 0 11.7841 18.5766 0
 12.3215 17.6655 0 12.8426 18.6141 0 11.7841 18.5766 0
 11.2392 17.6617 0 10.6858 16.7848 0 11.7325 16.7567 0
 12.3215 17.6655 0 11.2392 17.6617 0 11.7325 16.7567 0
 11.7325 16.7567 0 10.6858 16.7848 0 11.1658 15.8854 0
 11.1658 15.8854 0 10.6858 16.7848 0 10.1062 15.9189 0
 9.49647 15 0 10.6173 15 0 10.1062 15.9189 0
 10.1062 14.0811 0 10.6173 15 0 9.49647 15 0
 9.00214 14.0035 0 10.1062 14.0811 0 9.49647 15 0
 10.6173 15 0 11.1658 15.8854 0 10.1062 15.9189 0
 8.68156 12.9828 0 9.00214 14.0035 0 7.91528 13.8388 0
 9.00214 14.0035 0 8.68156 12.9828 0 9.67885 13.1708 0
 10.1062 14.0811 0 9.00214 14.0035 0 9.67885 13.1708 0
 8.68156 12.9828 0 7.91528 13.8388 0 7.65049 12.6612 0
 -7.88645 27.7595 0 -8.83045 27.1253 0 -7.79314 26.6591 0
 -8.83045 27.1253 0 -8.63084 25.8697 0 -7.79314 26.6591 0
 -9.58526 25.5519 0 -8.63084 25.8697 0 -9.62185 26.5074 0
 -8.63084 25.8697 0 -9.58526 25.5519 0 -9.08236 24.8046 0
 -8.63084 25.8697 0 -8.83045 27.1253 0 -9.62185 26.5074 0
 -9.58526 25.5519 0 -10.1123 24.832 0 -9.08236 24.8046 0
 -10.1123 24.832 0 -9.61397 23.9394 0 -9.08236 24.8046 0
 -10.1725 23.0759 0 -9.61397 23.9394 0 -10.7131 24.0188 0
 -9.61397 23.9394 0 -10.1123 24.832 0 -10.7131 24.0188 0
 -10.163 21.2425 0 -9.60975 22.1292 0 -10.7339 22.1991 0
 -9.60975 22.1292 0 -10.1725 23.0759 0 -10.7339 22.1991 0
 -10.1725 23.0759 0 -11.3102 23.1658 0 -10.7339 22.1991 0
 -11.3102 23.1658 0 -10.1725 23.0759 0 -10.7131 24.0188 0
 -9.60215 20.2846 0 -10.163 21.2425 0 -10.714 20.3503 0
 -10.1707 19.3993 0 -9.60215 20.2846 0 -10.714 20.3503 0
 -10.1707 19.3993 0 -9.05723 19.3046 0 -9.60215 20.2846 0
 -8.52026 18.1852 0 -9.05723 19.3046 0 -9.67929 18.4616 0
 -9.05723 19.3046 0 -10.1707 19.3993 0 -9.67929 18.4616 0
 -9.35713 17.6255 0 -8.52026 18.1852 0 -9.67929 18.4616 0
 -8.52026 18.1852 0 -8.68156 17.0172 0 -7.65049 17.3388 0
 -8.68156 17.0172 0 -8.52026 18.1852 0 -9.35713 17.6255 0
 -10.163 21.2425 0 -11.2835 21.3068 0 -10.714 20.3503 0
 -10.163 21.2425 0 -10.7339 22.1991 0 -11.2835 21.3068 0
 -8.68156 17.0172 0 -7.91528 16.1612 0 -7.65049 17.3388 0
 13.3562 19.5194 0 14.3396 19.4019 0 13.9792 20.4388 0
 13.3562 19.5194 0 13.7532 18.7028 0 14.3396 19.4019 0
 12.8426 18.6141 0 13.7532 18.7028 0 13.3562 19.5194 0
 12.8426 18.6141 0 12.3215 17.6655 0 13.5797 17.6839 0
 13.7532 18.7028 0 12.8426 18.6141 0 13.5797 17.6839 0
 12.3215 17.6655 0 11.7325 16.7567 0 12.8125 16.6965 0
 12.3215 17.6655 0 12.8125 16.6965 0 13.5797 17.6839 0
 11.7325 16.7567 0 12.2009 15.8471 0 12.8125 16.6965 0
 12.2009 15.8471 0 11.7325 16.7567 0 11.1658 15.8854 0
 11.6671 15 0 12.2009 15.8471 0 11.1658 15.8854 0
 10.6173 15 0 11.6671 15 0 11.1658 15.8854 0
 10.6173 15 0 10.1062 14.0811 0 11.1658 14.1146 0
 11.6671 15 0 10.6173 15 0 11.1658 14.1146 0
 10.1062 14.0811 0 10.6858 13.2152 0 11.1658 14.1146 0
 10.6858 13.2152 0 10.1062 14.0811 0 9.67885 13.1708 0
 8.52026 11.8149 0 9.35713 12.3745 0 8.68156 12.9828 0
 8.52026 11.8149 0 8.68156 12.9828 0 7.65049 12.6612 0
 8.68156 12.9828 0 9.35713 12.3745 0 9.67885 13.1708 0
 9.35713 12.3745 0 10.2268 12.3521 0 9.67885 13.1708 0
 10.2268 12.3521 0 10.6858 13.2152 0 9.67885 13.1708 0
 7.27687 11.6763 0 8.52026 11.8149 0 7.65049 12.6612 0
 -10.1123 24.832 0 -9.58526 25.5519 0 -10.4705 25.741 0
 -9.58526 25.5519 0 -9.62185 26.5074 0 -10.4705 25.741 0
 -11.2128 24.9635 0 -10.1123 24.832 0 -10.4705 25.741 0
 -10.1123 24.832 0 -11.2128 24.9635 0 -10.7131 24.0188 0
 -11.8887 24.1465 0 -11.3102 23.1658 0 -10.7131 24.0188 0
 -11.2128 24.9635 0 -11.8887 24.1465 0 -10.7131 24.0188 0
 -10.7339 22.1991 0 -11.8787 22.2811 0 -11.2835 21.3068 0
 -11.3102 23.1658 0 -11.8787 22.2811 0 -10.7339 22.1991 0
 -11.3102 23.1658 0 -11.8887 24.1465 0 -12.5042 23.2853 0
 -11.8787 22.2811 0 -11.3102 23.1658 0 -12.5042 23.2853 0
 -11.2835 21.3068 0 -11.8147 20.4044 0 -10.714 20.3503 0
 -11.2554 19.4625 0 -10.1707 19.3993 0 -10.714 20.3503 0
 -11.8147 20.4044 0 -11.2554 19.4625 0 -10.714 20.3503 0
 -10.1707 19.3993 0 -10.7224 18.5343 0 -9.67929 18.4616 0
 -10.1707 19.3993 0 -11.2554 19.4625 0 -10.7224 18.5343 0
 -10.7224 18.5343 0 -10.2268 17.6479 0 -9.67929 18.4616 0
 -10.2268 17.6479 0 -9.35713 17.6255 0 -9.67929 18.4616 0
 -9.35713 17.6255 0 -10.2268 17.6479 0 -9.67885 16.8292 0
 -8.68156 17.0172 0 -9.35713 17.6255 0 -9.67885 16.8292 0
 -9.00214 15.9965 0 -8.68156 17.0172 0 -9.67885 16.8292 0
 -8.68156 17.0172 0 -9.00214 15.9965 0 -7.91528 16.1612 0
 -11.8147 20.4044 0 -11.2835 21.3068 0 -12.411 21.3692 0
 -11.2835 21.3068 0 -11.8787 22.2811 0 -12.411 21.3692 0
 -7.91528 16.1612 0 -9.00214 15.9965 0 -8 15 0
 14.3396 19.4019 0 13.7532 18.7028 0 14.6364 18.2827 0
 14.6364 18.2827 0 13.7532 18.7028 0 13.5797 17.6839 0
 12.8125 16.6965 0 13.9015 16.5104 0 13.5797 17.6839 0
 14.8247 17.2865 0 14.6364 18.2827 0 13.5797 17.6839 0
 13.9015 16.5104 0 14.8247 17.2865 0 13.5797 17.6839 0
 13.1805 15.7596 0 13.9015 16.5104 0 12.8125 16.6965 0
 12.2009 15.8471 0 13.1805 15.7596 0 12.8125 16.6965 0
 12.2009 15.8471 0 12.6428 15 0 13.1805 15.7596 0
 11.6671 15 0 12.6428 15 0 12.2009 15.8471 0
 11.6671 15 0 12.2009 14.1529 0 12.6428 15 0
 12.2009 14.1529 0 11.6671 15 0 11.1658 14.1146 0
 10.6858 13.2152 0 11.7325 13.2433 0 11.1658 14.1146 0
 11.7325 13.2433 0 12.2009 14.1529 0 11.1658 14.1146 0
 10.2268 12.3521 0 11.2392 12.3383 0 10.6858 13.2152 0
 10.6858 13.2152 0 11.2392 12.3383 0 11.7325 13.2433 0
 8.52026 11.8149 0 9.67929 11.5384 0 9.35713 12.3745 0
 9.67929 11.5384 0 8.52026 11.8149 0 9.05723 10.6954 0
 9.05723 10.6954 0 8.52026 11.8149 0 7.89961 10.755 0
 8.52026 11.8149 0 7.27687 11.6763 0 7.89961 10.755 0
 9.67929 11.5384 0 10.2268 12.3521 0 9.35713 12.3745 0
 10.2268 12.3521 0 9.67929 11.5384 0 10.7224 11.4657 0
 11.2392 12.3383 0 10.2268 12.3521 0 10.7224 11.4657 0
 7.27687 11.6763 0 6.77308 10.7426 0 7.89961 10.755 0
 -11.8787 22.2811 0 -13.0594 22.3792 0 -12.411 21.3692 0
 -13.0594 22.3792 0 -11.8787 22.2811 0 -12.5042 23.2853 0
 -11.8147 20.4044 0 -12.9039 20.44 0 -12.3277 19.5043 0
 -12.9039 20.44 0 -11.8147 20.4044 0 -12.411 21.3692 0
 -11.2554 19.4625 0 -11.8147 20.4044 0 -12.3277 19.5043 0
 -11.2554 19.4625 0 -11.7841 18.5766 0 -10.7224 18.5343 0
 -11.7841 18.5766 0 -11.2554 19.4625 0 -12.3277 19.5043 0
 -10.7224 18.5343 0 -11.7841 18.5766 0 -11.2392 17.6617 0
 -10.2268 17.6479 0 -10.7224 18.5343 0 -11.2392 17.6617 0
 -10.2268 17.6479 0 -10.6858 16.7848 0 -9.67885 16.8292 0
 -10.6858 16.7848 0 -10.2268 17.6479 0 -11.2392 17.6617 0
 -9.67885 16.8292 0 -10.6858 16.7848 0 -10.1062 15.9189 0
 -9.00214 15.9965 0 -9.67885 16.8292 0 -10.1062 15.9189 0
 -9.49647 15 0 -9.00214 15.9965 0 -10.1062 15.9189 0
 -9.00214 15.9965 0 -9.49647 15 0 -8 15 0
 -13.552 21.4299 0 -12.9039 20.44 0 -12.411 21.3692 0
 -13.0594 22.3792 0 -13.552 21.4299 0 -12.411 21.3692 0
 -8 15 0 -9.00214 14.0035 0 -7.91528 13.8388 0
 -9.49647 15 0 -9.00214 14.0035 0 -8 15 0
 14.8247 17.2865 0 13.9015 16.5104 0 14.9529 16.1875 0
 13.9015 16.5104 0 14.0989 15.4921 0 14.9529 16.1875 0
 13.1805 15.7596 0 14.0989 15.4921 0 13.9015 16.5104 0
 12.6428 15 0 13.439 15 0 13.1805 15.7596 0
 13.439 15 0 14.0989 15.4921 0 13.1805 15.7596 0
 13.439 15 0 12.6428 15 0 13.1805 14.2404 0
 12.6428 15 0 12.2009 14.1529 0 13.1805 14.2404 0
 12.8125 13.3035 0 12.2009 14.1529 0 11.7325 13.2433 0
 12.2009 14.1529 0 12.8125 13.3035 0 13.1805 14.2404 0
 12.8125 13.3035 0 11.7325 13.2433 0 12.3215 12.3345 0
 11.7325 13.2433 0 11.2392 12.3383 0 12.3215 12.3345 0
 11.2392 12.3383 0 11.7841 11.4234 0 12.3215 12.3345 0
 11.2392 12.3383 0 10.7224 11.4657 0 11.7841 11.4234 0
 9.67929 11.5384 0 9.05723 10.6954 0 10.1707 10.6007 0
 10.7224 11.4657 0 9.67929 11.5384 0 10.1707 10.6007 0
 9.05723 10.6954 0 7.89961 10.755 0 8.47017 9.78122 0
 9.60215 9.71543 0 9.05723 10.6954 0 8.47017 9.78122 0
 9.05723 10.6954 0 9.60215 9.71543 0 10.1707 10.6007 0
 6.77308 10.7426 0 7.32453 9.82823 0 7.89961 10.755 0
 7.89961 10.755 0 7.32453 9.82823 0 8.47017 9.78122 0
 11.2554 10.5375 0 10.7224 11.4657 0 10.1707 10.6007 0
 11.7841 11.4234 0 10.7224 11.4657 0 11.2554 10.5375 0
 7.32453 9.82823 0 6.77308 10.7426 0 6.14682 9.87978 0
 -12.9039 20.44 0 -13.552 21.4299 0 -13.9792 20.4388 0
 -12.9039 20.44 0 -13.3562 19.5194 0 -12.3277 19.5043 0
 -13.3562 19.5194 0 -12.9039 20.44 0 -13.9792 20.4388 0
 -12.8426 18.6141 0 -11.7841 18.5766 0 -12.3277 19.5043 0
 -13.3562 19.5194 0 -12.8426 18.6141 0 -12.3277 19.5043 0
 -11.7841 18.5766 0 -12.3215 17.6655 0 -11.2392 17.6617 0
 -12.3215 17.6655 0 -11.7841 18.5766 0 -12.8426 18.6141 0
 -10.6858 16.7848 0 -11.2392 17.6617 0 -11.7325 16.7567 0
 -11.2392 17.6617 0 -12.3215 17.6655 0 -11.7325 16.7567 0
 -10.6858 16.7848 0 -11.1658 15.8854 0 -10.1062 15.9189 0
 -11.1658 15.8854 0 -10.6858 16.7848 0 -11.7325 16.7567 0
 -10.6173 15 0 -9.49647 15 0 -10.1062 15.9189 0
 -11.1658 15.8854 0 -10.6173 15 0 -10.1062 15.9189 0
 -9.49647 15 0 -10.6173 15 0 -10.1062 14.0811 0
 -9.00214 14.0035 0 -9.49647 15 0 -10.1062 14.0811 0
 -9.67885 13.1708 0 -9.00214 14.0035 0 -10.1062 14.0811 0
 -9.00214 14.0035 0 -8.68156 12.9828 0 -7.91528 13.8388 0
 -8.68156 12.9828 0 -9.00214 14.0035 0 -9.67885 13.1708 0
 -8.68156 12.9828 0 -7.65049 12.6612 0 -7.91528 13.8388 0
 14.0989 15.4921 0 15 15 0 14.9529 16.1875 0
 13.439 15 0 14.0989 14.5079 0 14.0989 15.4921 0
 14.0989 14.5079 0 15 15 0 14.0989 15.4921 0
 14.0989 14.5079 0 13.439 15 0 13.1805 14.2404 0
 13.9015 13.4896 0 14.0989 14.5079 0 13.1805 14.2404 0
 12.8125 13.3035 0 13.9015 13.4896 0 13.1805 14.2404 0
 13.5797 12.3161 0 12.8125 13.3035 0 12.3215 12.3345 0
 13.9015 13.4896 0 12.8125 13.3035 0 13.5797 12.3161 0
 12.8426 11.3859 0 13.5797 12.3161 0 12.3215 12.3345 0
 11.7841 11.4234 0 12.8426 11.3859 0 12.3215 12.3345 0
 11.7841 11.4234 0 11.2554 10.5375 0 12.3277 10.4957 0
 12.8426 11.3859 0 11.7841 11.4234 0 12.3277 10.4957 0
 9.60215 9.71543 0 10.714 9.64965 0 10.1707 10.6007 0
 10.714 9.64965 0 11.2554 10.5375 0 10.1707 10.6007 0
 7.32453 9.82823 0 7.90996 8.87766 0 8.47017 9.78122 0
 7.90996 8.87766 0 9.04007 8.82122 0 8.47017 9.78122 0
 9.04007 8.82122 0 9.60215 9.71543 0 8.47017 9.78122 0
 10.163 8.75752 0 10.714 9.64965 0 9.60215 9.71543 0
 9.04007 8.82122 0 10.163 8.75752 0 9.60215 9.71543 0
 6.75459 8.93219 0 7.32453 9.82823 0 6.14682 9.87978 0
 7.32453 9.82823 0 6.75459 8.93219 0 7.90996 8.87766 0
 10.714 9.64965 0 11.8147 9.59564 0 11.2554 10.5375 0
 11.2554 10.5375 0 11.8147 9.59564 0 12.3277 10.4957 0
 6.75459 8.93219 0 6.14682 9.87978 0 5.40081 9.0982 0
 -14.3396 19.4019 0 -13.3562 19.5194 0 -13.9792 20.4388 0
 -13.3562 19.5194 0 -13.7532 18.7028 0 -12.8426 18.6141 0
 -13.7532 18.7028 0 -13.3562 19.5194 0 -14.3396 19.4019 0
 -13.5797 17.6839 0 -12.3215 17.6655 0 -12.8426 18.6141 0
 -13.7532 18.7028 0 -13.5797 17.6839 0 -12.8426 18.6141 0
 -12.3215 17.6655 0 -12.8125 16.6965 0 -11.7325 16.7567 0
 -13.5797 17.6839 0 -12.8125 16.6965 0 -12.3215 17.6655 0
 -12.2009 15.8471 0 -11.1658 15.8854 0 -11.7325 16.7567 0
 -12.8125 16.6965 0 -12.2009 15.8471 0 -11.7325 16.7567 0
 -10.6173 15 0 -11.1658 15.8854 0 -11.6671 15 0
 -11.1658 15.8854 0 -12.2009 15.8471 0 -11.6671 15 0
 -11.1658 14.1146 0 -10.6173 15 0 -11.6671 15 0
 -10.6173 15 0 -11.1658 14.1146 0 -10.1062 14.0811 0
 -10.6858 13.2152 0 -9.67885 13.1708 0 -10.1062 14.0811 0
 -11.1658 14.1146 0 -10.6858 13.2152 0 -10.1062 14.0811 0
 -10.2268 12.3521 0 -9.35713 12.3745 0 -9.67885 13.1708 0
 -10.6858 13.2152 0 -10.2268 12.3521 0 -9.67885 13.1708 0
 -9.35713 12.3745 0 -8.68156 12.9828 0 -9.67885 13.1708 0
 -8.68156 12.9828 0 -9.35713 12.3745 0 -8.52026 11.8149 0
 -7.65049 12.6612 0 -8.68156 12.9828 0 -8.52026 11.8149 0
 -7.27687 11.6763 0 -7.65049 12.6612 0 -8.52026 11.8149 0
 15 15 0 14.0989 14.5079 0 14.9529 13.8125 0
 14.0989 14.5079 0 13.9015 13.4896 0 14.9529 13.8125 0
 14.9529 13.8125 0 13.9015 13.4896 0 14.8247 12.7135 0
 13.9015 13.4896 0 13.5797 12.3161 0 14.8247 12.7135 0
 13.5797 12.3161 0 14.6364 11.7173 0 14.8247 12.7135 0
 12.8426 11.3859 0 13.7532 11.2972 0 13.5797 12.3161 0
 13.5797 12.3161 0 13.7532 11.2972 0 14.6364 11.7173 0
 13.3562 10.4806 0 13.7532 11.2972 0 12.8426 11.3859 0
 13.3562 10.4806 0 12.8426 11.3859 0 12.3277 10.4957 0
 12.3277 10.4957 0 11.8147 9.59564 0 12.9039 9.55997 0
 13.3562 10.4806 0 12.3277 10.4957 0 12.9039 9.55997 0
 10.714 9.64965 0 11.2835 8.69324 0 11.8147 9.59564 0
 11.2835 8.69324 0 10.714 9.64965 0 10.163 8.75752 0
 7.90996 8.87766 0 7.38032 7.96917 0 8.49356 7.92784 0
 6.75459 8.93219 0 7.38032 7.96917 0 7.90996 8.87766 0
 9.04007 8.82122 0 7.90996 8.87766 0 8.49356 7.92784 0
 9.60975 7.87077 0 9.04007 8.82122 0 8.49356 7.92784 0
 9.04007 8.82122 0 9.60975 7.87077 0 10.163 8.75752 0
 10.7339 7.80088 0 11.2835 8.69324 0 10.163 8.75752 0
 9.60975 7.87077 0 10.7339 7.80088 0 10.163 8.75752 0
 6.281 7.99264 0 7.38032 7.96917 0 6.75459 8.93219 0
 6.281 7.99264 0 6.75459 8.93219 0 5.40081 9.0982 0
 11.8147 9.59564 0 11.2835 8.69324 0 12.411 8.63076 0
 11.8147 9.59564 0 12.411 8.63076 0 12.9039 9.55997 0
 5.30773 7.91266 0 6.281 7.99264 0 5.40081 9.0982 0
 4.45646 8.35621 0 5.30773 7.91266 0 5.40081 9.0982 0
 -13.7532 18.7028 0 -14.3396 19.4019 0 -14.6364 18.2827 0
 -13.5797 17.6839 0 -13.7532 18.7028 0 -14.6364 18.2827 0
 -12.8125 16.6965 0 -13.5797 17.6839 0 -13.9015 16.5104 0
 -14.8247 17.2865 0 -13.5797 17.6839 0 -14.6364 18.2827 0
 -13.5797 17.6839 0 -14.8247 17.2865 0 -13.9015 16.5104 0
 -12.8125 16.6965 0 -13.1805 15.7596 0 -12.2009 15.8471 0
 -13.1805 15.7596 0 -12.8125 16.6965 0 -13.9015 16.5104 0
 -12.2009 15.8471 0 -12.6428 15 0 -11.6671 15 0
 -13.1805 15.7596 0 -12.6428 15 0 -12.2009 15.8471 0
 -12.6428 15 0 -12.2009 14.1529 0 -11.6671 15 0
 -12.2009 14.1529 0 -11.1658 14.1146 0 -11.6671 15 0
 -11.7325 13.2433 0 -11.1658 14.1146 0 -12.2009 14.1529 0
 -11.1658 14.1146 0 -11.7325 13.2433 0 -10.6858 13.2152 0
 -10.6858 13.2152 0 -11.7325 13.2433 0 -11.2392 12.3383 0
 -10.2268 12.3521 0 -10.6858 13.2152 0 -11.2392 12.3383 0
 -9.35713 12.3745 0 -10.2268 12.3521 0 -9.67929 11.5384 0
 -10.7224 11.4657 0 -10.2268 12.3521 0 -11.2392 12.3383 0
 -10.2268 12.3521 0 -10.7224 11.4657 0 -9.67929 11.5384 0
 -8.52026 11.8149 0 -9.35713 12.3745 0 -9.67929 11.5384 0
 -9.05723 10.6954 0 -8.52026 11.8149 0 -9.67929 11.5384 0
 -9.05723 10.6954 0 -7.89961 10.755 0 -8.52026 11.8149 0
 -7.89961 10.755 0 -7.27687 11.6763 0 -8.52026 11.8149 0
 -7.27687 11.6763 0 -7.89961 10.755 0 -6.77308 10.7426 0
 13.7532 11.2972 0 14.3396 10.5981 0 14.6364 11.7173 0
 13.7532 11.2972 0 13.3562 10.4806 0 14.3396 10.5981 0
 13.9792 9.56117 0 13.3562 10.4806 0 12.9039 9.55997 0
 13.3562 10.4806 0 13.9792 9.56117 0 14.3396 10.5981 0
 12.411 8.63076 0 13.552 8.57006 0 12.9039 9.55997 0
 13.552 8.57006 0 13.9792 9.56117 0 12.9039 9.55997 0
 11.2835 8.69324 0 10.7339 7.80088 0 11.8787 7.71891 0
 11.2835 8.69324 0 11.8787 7.71891 0 12.411 8.63076 0
 7.38032 7.96917 0 6.281 7.99264 0 6.88246 7.0475 0
 7.38032 7.96917 0 7.96911 7.02803 0 8.49356 7.92784 0
 7.96911 7.02803 0 7.38032 7.96917 0 6.88246 7.0475 0
 7.96911 7.02803 0 9.06516 6.98756 0 8.49356 7.92784 0
 9.06516 6.98756 0 9.60975 7.87077 0 8.49356 7.92784 0
 10.1725 6.92411 0 9.60975 7.87077 0 9.06516 6.98756 0
 10.1725 6.92411 0 10.7339 7.80088 0 9.60975 7.87077 0
 10.7339 7.80088 0 10.1725 6.92411 0 11.3102 6.83419 0
 10.7339 7.80088 0 11.3102 6.83419 0 11.8787 7.71891 0
 6.281 7.99264 0 5.80631 7.04112 0 6.88246 7.0475 0
 5.80631 7.04112 0 6.281 7.99264 0 5.30773 7.91266 0
 12.411 8.63076 0 13.0594 7.62078 0 13.552 8.57006 0
 12.411 8.63076 0 11.8787 7.71891 0 13.0594 7.62078 0
 4.5938 7.11835 0 5.80631 7.04112 0 5.30773 7.91266 0
 4.45646 8.35621 0 4.5938 7.11835 0 5.30773 7.91266 0
 4.5938 7.11835 0 4.45646 8.35621 0 3.55474 7.83314 0
 -13.9015 16.5104 0 -14.8247 17.2865 0 -14.9529 16.1875 0
 -14.0989 15.4921 0 -13.9015 16.5104 0 -14.9529 16.1875 0
 -14.0989 15.4921 0 -13.1805 15.7596 0 -13.9015 16.5104 0
 -13.439 15 0 -13.1805 15.7596 0 -14.0989 15.4921 0
 -12.6428 15 0 -13.1805 15.7596 0 -13.439 15 0
 -12.6428 15 0 -13.439 15 0 -13.1805 14.2404 0
 -12.2009 14.1529 0 -12.6428 15 0 -13.1805 14.2404 0
 -12.8125 13.3035 0 -12.2009 14.1529 0 -13.1805 14.2404 0
 -12.8125 13.3035 0 -11.7325 13.2433 0 -12.2009 14.1529 0
 -11.7325 13.2433 0 -12.3215 12.3345 0 -11.2392 12.3383 0
 -11.7325 13.2433 0 -12.8125 13.3035 0 -12.3215 12.3345 0
 -12.3215 12.3345 0 -11.7841 11.4234 0 -11.2392 12.3383 0
 -11.7841 11.4234 0 -10.7224 11.4657 0 -11.2392 12.3383 0
 -10.1707 10.6007 0 -9.05723 10.6954 0 -9.67929 11.5384 0
 -10.7224 11.4657 0 -10.1707 10.6007 0 -9.67929 11.5384 0
 -10.7224 11.4657 0 -11.7841 11.4234 0 -11.2554 10.5375 0
 -10.1707 10.6007 0 -10.7224 11.4657 0 -11.2554 10.5375 0
 -9.05723 10.6954 0 -10.1707 10.6007 0 -9.60215 9.71543 0
 -8.47018 9.78122 0 -9.05723 10.6954 0 -9.60215 9.71543 0
 -8.47018 9.78122 0 -7.89961 10.755 0 -9.05723 10.6954 0
 -7.89961 10.755 0 -7.32456 9.82821 0 -6.77308 10.7426 0
 -7.89961 10.755 0 -8.47018 9.78122 0 -7.32456 9.82821 0
 -7.32456 9.82821 0 -6.14682 9.87978 0 -6.77308 10.7426 0
 11.3102 6.83419 0 12.5042 6.71474 0 11.8787 7.71891 0
 11.8787 7.71891 0 12.5042 6.71474 0 13.0594 7.62078 0
 5.80631 7.04112 0 6.40611 6.11642 0 6.88246 7.0475 0
 7.46476 6.12002 0 7.96911 7.02803 0 6.88246 7.0475 0
 6.40611 6.11642 0 7.46476 6.12002 0 6.88246 7.0475 0
 9.06516 6.98756 0 7.96911 7.02803 0 8.53784 6.09949 0
 7.96911 7.02803 0 7.46476 6.12002 0 8.53784 6.09949 0
 9.61396 6.06059 0 10.1725 6.92411 0 9.06516 6.98756 0
 9.61396 6.06059 0 9.06516 6.98756 0 8.53784 6.09949 0
 10.1725 6.92411 0 9.61396 6.06059 0 10.7131 5.98116 0
 11.3102 6.83419 0 10.1725 6.92411 0 10.7131 5.98116 0
 12.5042 6.71474 0 11.3102 6.83419 0 11.8887 5.85354 0
 11.3102 6.83419 0 10.7131 5.98116 0 11.8887 5.85354 0
 6.40611 6.11642 0 5.80631 7.04112 0 5.34644 6.06784 0
 5.80631 7.04112 0 4.5938 7.11835 0 5.34644 6.06784 0
 4.5938 7.11835 0 4.28341 5.88409 0 5.34644 6.06784 0
 4.5938 7.11835 0 3.41882 6.67352 0 4.28341 5.88409 0
 3.41882 6.67352 0 4.5938 7.11835 0 3.55474 7.83314 0
 2.58204 7.42814 0 3.41882 6.67352 0 3.55474 7.83314 0
 -14.0989 15.4921 0 -14.9529 16.1875 0 -15 15 0
 -14.0989 14.5079 0 -14.0989 15.4921 0 -15 15 0
 -14.0989 14.5079 0 -13.439 15 0 -14.0989 15.4921 0
 -13.439 15 0 -14.0989 14.5079 0 -13.1805 14.2404 0
 -14.0989 14.5079 0 -13.9015 13.4896 0 -13.1805 14.2404 0
 -13.9015 13.4896 0 -12.8125 13.3035 0 -13.1805 14.2404 0
 -12.8125 13.3035 0 -13.5797 12.3161 0 -12.3215 12.3345 0
 -12.8125 13.3035 0 -13.9015 13.4896 0 -13.5797 12.3161 0
 -12.3215 12.3345 0 -13.5797 12.3161 0 -12.8426 11.3859 0
 -11.7841 11.4234 0 -12.3215 12.3345 0 -12.8426 11.3859 0
 -12.3277 10.4957 0 -11.7841 11.4234 0 -12.8426 11.3859 0
 -11.2554 10.5375 0 -11.7841 11.4234 0 -12.3277 10.4957 0
 -10.1707 10.6007 0 -10.714 9.64965 0 -9.60215 9.71543 0
 -10.714 9.64965 0 -10.1707 10.6007 0 -11.2554 10.5375 0
 -11.8147 9.59564 0 -11.2554 10.5375 0 -12.3277 10.4957 0
 -10.714 9.64965 0 -11.2554 10.5375 0 -11.8147 9.59564 0
 -10.163 8.75752 0 -9.04007 8.82122 0 -9.60215 9.71543 0
 -10.714 9.64965 0 -10.163 8.75752 0 -9.60215 9.71543 0
 -9.04007 8.82122 0 -8.47018 9.78122 0 -9.60215 9.71543 0
 -8.47018 9.78122 0 -9.04007 8.82122 0 -7.91003 8.87763 0
 -8.47018 9.78122 0 -7.91003 8.87763 0 -7.32456 9.82821 0
 -6.75483 8.93203 0 -6.14682 9.87978 0 -7.32456 9.82821 0
 -7.91003 8.87763 0 -6.75483 8.93203 0 -7.32456 9.82821 0
 -6.14682 9.87978 0 -6.75483 8.93203 0 -5.40081 9.0982 0
 6.97765 5.21733 0 6.40611 6.11642 0 5.96818 5.19131 0
 5.96818 5.19131 0 6.40611 6.11642 0 5.34644 6.06784 0
 7.46476 6.12002 0 6.40611 6.11642 0 6.97765 5.21733 0
 7.46476 6.12002 0 8.02684 5.18994 0 8.53784 6.09949 0
 8.02684 5.18994 0 7.46476 6.12002 0 6.97765 5.21733 0
 9.61396 6.06059 0 8.53784 6.09949 0 9.08233 5.1954 0
 8.53784 6.09949 0 8.02684 5.18994 0 9.08233 5.1954 0
 9.61396 6.06059 0 10.1123 5.16797 0 10.7131 5.98116 0
 10.1123 5.16797 0 9.61396 6.06059 0 9.08233 5.1954 0
 10.7131 5.98116 0 11.2128 5.03645 0 11.8887 5.85354 0
 10.7131 5.98116 0 10.1123 5.16797 0 11.2128 5.03645 0
 4.99229 5.10223 0 5.96818 5.19131 0 5.34644 6.06784 0
 4.28341 5.88409 0 4.99229 5.10223 0 5.34644 6.06784 0
 3.19313 5.35727 0 4.14111 4.9571 0 4.28341 5.88409 0
 4.14111 4.9571 0 4.99229 5.10223 0 4.28341 5.88409 0
 3.41882 6.67352 0 3.19313 5.35727 0 4.28341 5.88409 0
 3.41882 6.67352 0 2.58204 7.42814 0 2.32519 6.34726 0
 3.19313 5.35727 0 3.41882 6.67352 0 2.32519 6.34726 0
 2.58204 7.42814 0 1.57729 7.15703 0 2.32519 6.34726 0
 -14.9529 13.8125 0 -14.0989 14.5079 0 -15 15 0
 -13.9015 13.4896 0 -14.0989 14.5079 0 -14.9529 13.8125 0
 -13.9015 13.4896 0 -14.8247 12.7135 0 -13.5797 12.3161 0
 -14.8247 12.7135 0 -13.9015 13.4896 0 -14.9529 13.8125 0
 -13.7532 11.2972 0 -13.5797 12.3161 0 -14.6364 11.7173 0
 -13.5797 12.3161 0 -13.7532 11.2972 0 -12.8426 11.3859 0
 -13.5797 12.3161 0 -14.8247 12.7135 0 -14.6364 11.7173 0
 -13.3562 10.4806 0 -12.3277 10.4957 0 -12.8426 11.3859 0
 -13.7532 11.2972 0 -13.3562 10.4806 0 -12.8426 11.3859 0
 -12.9039 9.55997 0 -11.8147 9.59564 0 -12.3277 10.4957 0
 -13.3562 10.4806 0 -12.9039 9.55997 0 -12.3277 10.4957 0
 -10.163 8.75752 0 -10.714 9.64965 0 -11.2835 8.69324 0
 -10.714 9.64965 0 -11.8147 9.59564 0 -11.2835 8.69324 0
 -11.8147 9.59564 0 -12.411 8.63076 0 -11.2835 8.69324 0
 -11.8147 9.59564 0 -12.9039 9.55997 0 -12.411 8.63076 0
 -10.7339 7.80088 0 -10.163 8.75752 0 -11.2835 8.69324 0
 -9.60975 7.87077 0 -9.04007 8.82122 0 -10.163 8.75752 0
 -10.7339 7.80088 0 -9.60975 7.87077 0 -10.163 8.75752 0
 -9.04007 8.82122 0 -8.49362 7.92781 0 -7.91003 8.87763 0
 -9.60975 7.87077 0 -8.49362 7.92781 0 -9.04007 8.82122 0
 -7.3807 7.9689 0 -6.75483 8.93203 0 -7.91003 8.87763 0
 -8.49362 7.92781 0 -7.3807 7.9689 0 -7.91003 8.87763 0
 -5.40081 9.0982 0 -6.75483 8.93203 0 -6.28202 7.9918 0
 -6.75483 8.93203 0 -7.3807 7.9689 0 -6.28202 7.9918 0
 -5.30894 7.91139 0 -5.40081 9.0982 0 -6.28202 7.9918 0
 -4.45646 8.35621 0 -5.40081 9.0982 0 -5.30894 7.91139 0
 6.97765 5.21733 0 6.52118 4.36297 0 7.48921 4.32518 0
 6.52118 4.36297 0 6.97765 5.21733 0 5.96818 5.19131 0
 8.02684 5.18994 0 6.97765 5.21733 0 7.48921 4.32518 0
 6.52118 4.36297 0 5.96818 5.19131 0 5.56761 4.28876 0
 5.96818 5.19131 0 4.99229 5.10223 0 5.56761 4.28876 0
 8.02684 5.18994 0 8.63076 4.13036 0 9.08233 5.1954 0
 8.63076 4.13036 0 8.02684 5.18994 0 7.48921 4.32518 0
 9.58525 4.44814 0 10.1123 5.16797 0 9.08233 5.1954 0
 8.63076 4.13036 0 9.58525 4.44814 0 9.08233 5.1954 0
 11.2128 5.03645 0 10.1123 5.16797 0 10.4705 4.25902 0
 10.1123 5.16797 0 9.58525 4.44814 0 10.4705 4.25902 0
 4.99229 5.10223 0 4.14111 4.9571 0 4.60869 4.21173 0
 5.56761 4.28876 0 4.99229 5.10223 0 4.60869 4.21173 0
 3.62776 4.21506 0 4.14111 4.9571 0 3.19313 5.35727 0
 3.62776 4.21506 0 3.19313 5.35727 0 2.58145 4.24481 0
 1.95911 5.2445 0 3.19313 5.35727 0 2.32519 6.34726 0
 3.19313 5.35727 0 1.95911 5.2445 0 2.58145 4.24481 0
 4.14111 4.9571 0 3.62776 4.21506 0 4.60869 4.21173 0
 1.57729 7.15703 0 1.25984 6.16097 0 2.32519 6.34726 0
 1.25984 6.16097 0 1.95911 5.2445 0 2.32519 6.34726 0
 0.526293 7.01733 0 1.25984 6.16097 0 1.57729 7.15703 0
 -14.3396 10.5981 0 -13.7532 11.2972 0 -14.6364 11.7173 0
 -14.3396 10.5981 0 -13.3562 10.4806 0 -13.7532 11.2972 0
 -13.3562 10.4806 0 -14.3396 10.5981 0 -13.9792 9.56117 0
 -12.9039 9.55997 0 -13.3562 10.4806 0 -13.9792 9.56117 0
 -12.9039 9.55997 0 -13.552 8.57006 0 -12.411 8.63076 0
 -13.552 8.57006 0 -12.9039 9.55997 0 -13.9792 9.56117 0
 -12.411 8.63076 0 -11.8787 7.71891 0 -11.2835 8.69324 0
 -11.8787 7.71891 0 -10.7339 7.80088 0 -11.2835 8.69324 0
 -12.411 8.63076 0 -13.552 8.57006 0 -13.0594 7.62078 0
 -11.8787 7.71891 0 -12.411 8.63076 0 -13.0594 7.62078 0
 -10.7339 7.80088 0 -11.3102 6.83419 0 -10.1725 6.92411 0
 -10.7339 7.80088 0 -11.8787 7.71891 0 -11.3102 6.83419 0
 -9.60975 7.87077 0 -10.7339 7.80088 0 -10.1725 6.92411 0
 -9.60975 7.87077 0 -9.06518 6.98754 0 -8.49362 7.92781 0
 -9.06518 6.98754 0 -9.60975 7.87077 0 -10.1725 6.92411 0
 -7.3807 7.9689 0 -8.49362 7.92781 0 -7.96937 7.0278 0
 -8.49362 7.92781 0 -9.06518 6.98754 0 -7.96937 7.0278 0
 -6.88363 7.04644 0 -7.3807 7.9689 0 -7.96937 7.0278 0
 -7.3807 7.9689 0 -6.88363 7.04644 0 -6.28202 7.9918 0
 -5.80874 7.03898 0 -5.30894 7.91139 0 -6.28202 7.9918 0
 -6.88363 7.04644 0 -5.80874 7.03898 0 -6.28202 7.9918 0
 -5.80874 7.03898 0 -4.59781 7.11559 0 -5.30894 7.91139 0
 -4.59781 7.11559 0 -4.45646 8.35621 0 -5.30894 7.91139 0
 -3.55474 7.83314 0 -4.45646 8.35621 0 -4.59781 7.11559 0
 6.16032 3.47966 0 6.52118 4.36297 0 5.56761 4.28876 0
 6.52118 4.36297 0 6.97762 3.65981 0 7.48921 4.32518 0
 6.97762 3.65981 0 6.52118 4.36297 0 6.16032 3.47966 0
 7.79264 3.34111 0 8.63076 4.13036 0 7.48921 4.32518 0
 6.97762 3.65981 0 7.79264 3.34111 0 7.48921 4.32518 0
 5.56761 4.28876 0 4.60869 4.21173 0 5.16723 3.36939 0
 6.16032 3.47966 0 5.56761 4.28876 0 5.16723 3.36939 0
 8.63076 4.13036 0 8.83045 2.87469 0 9.62185 3.49261 0
 8.63076 4.13036 0 7.79264 3.34111 0 8.83045 2.87469 0
 9.58525 4.44814 0 8.63076 4.13036 0 9.62185 3.49261 0
 10.4705 4.25902 0 9.58525 4.44814 0 9.62185 3.49261 0
 4.60869 4.21173 0 4.15794 3.32138 0 5.16723 3.36939 0
 3.62776 4.21506 0 4.15794 3.32138 0 4.60869 4.21173 0
 3.14157 3.27651 0 3.62776 4.21506 0 2.58145 4.24481 0
 3.62776 4.21506 0 3.14157 3.27651 0 4.15794 3.32138 0
 2.09468 3.22398 0 3.14157 3.27651 0 2.58145 4.24481 0
 1.95911 5.2445 0 1.50453 4.19526 0 2.58145 4.24481 0
 1.50453 4.19526 0 2.09468 3.22398 0 2.58145 4.24481 0
 1.50453 4.19526 0 1.95911 5.2445 0 0.898132 5.14478 0
 1.95911 5.2445 0 1.25984 6.16097 0 0.898132 5.14478 0
 1.25984 6.16097 0 0.284716 6.03045 0 0.898132 5.14478 0
 0.284716 6.03045 0 1.25984 6.16097 0 0.526293 7.01733 0
 -0.526293 7.01733 0 0.284716 6.03045 0 0.526293 7.01733 0
 -11.3102 6.83419 0 -11.8787 7.71891 0 -12.5042 6.71474 0
 -12.5042 6.71474 0 -11.8787 7.71891 0 -13.0594 7.62078 0
 -11.3102 6.83419 0 -12.5042 6.71474 0 -11.8887 5.85354 0
 -10.7131 5.98116 0 -11.3102 6.83419 0 -11.8887 5.85354 0
 -11.3102 6.83419 0 -10.7131 5.98116 0 -10.1725 6.92411 0
 -10.7131 5.98116 0 -9.61397 6.06058 0 -10.1725 6.92411 0
 -9.61397 6.06058 0 -9.06518 6.98754 0 -10.1725 6.92411 0
 -8.53796 6.09938 0 -9.06518 6.98754 0 -9.61397 6.06058 0
 -9.06518 6.98754 0 -8.53796 6.09938 0 -7.96937 7.0278 0
 -7.46561 6.11921 0 -6.88363 7.04644 0 -7.96937 7.0278 0
 -8.53796 6.09938 0 -7.46561 6.11921 0 -7.96937 7.0278 0
 -6.88363 7.04644 0 -6.40897 6.11392 0 -5.80874 7.03898 0
 -7.46561 6.11921 0 -6.40897 6.11392 0 -6.88363 7.04644 0
 -4.59781 7.11559 0 -5.80874 7.03898 0 -5.35242 6.06334 0
 -5.80874 7.03898 0 -6.40897 6.11392 0 -5.35242 6.06334 0
 -4.29491 5.87673 0 -4.59781 7.11559 0 -5.35242 6.06334 0
 -4.29491 5.87673 0 -3.43273 6.66911 0 -4.59781 7.11559 0
 -3.43273 6.66911 0 -3.55474 7.83314 0 -4.59781 7.11559 0
 -2.58204 7.42814 0 -3.55474 7.83314 0 -3.43273 6.66911 0
 5.84826 2.39577 0 6.16032 3.47966 0 5.16723 3.36939 0
 6.92339 2.796 0 6.16032 3.47966 0 5.84826 2.39577 0
 6.97762 3.65981 0 6.16032 3.47966 0 6.92339 2.796 0
 7.79264 3.34111 0 6.97762 3.65981 0 6.92339 2.796 0
 7.79264 3.34111 0 6.92339 2.796 0 7.88645 2.24054 0
 8.83045 2.87469 0 7.79264 3.34111 0 7.88645 2.24054 0
 4.15794 3.32138 0 4.70715 2.45945 0 5.16723 3.36939 0
 4.70715 2.45945 0 5.84826 2.39577 0 5.16723 3.36939 0
 4.70715 2.45945 0 4.15794 3.32138 0 3.70876 2.37764 0
 4.15794 3.32138 0 3.14157 3.27651 0 3.70876 2.37764 0
 3.14157 3.27651 0 2.09468 3.22398 0 2.68712 2.28036 0
 3.14157 3.27651 0 2.68712 2.28036 0 3.70876 2.37764 0
 2.09468 3.22398 0 1.50453 4.19526 0 1.03483 3.16859 0
 1.6368 2.1875 0 2.09468 3.22398 0 1.03483 3.16859 0
 2.68712 2.28036 0 2.09468 3.22398 0 1.6368 2.1875 0
 1.50453 4.19526 0 0.464135 4.14508 0 1.03483 3.16859 0
 0.464135 4.14508 0 1.50453 4.19526 0 0.898132 5.14478 0
 0.284716 6.03045 0 -0.0775062 5.06596 0 0.898132 5.14478 0
 -0.0775062 5.06596 0 0.464135 4.14508 0 0.898132 5.14478 0
 0.284716 6.03045 0 -0.552735 5.8385 0 -0.0775062 5.06596 0
 0.284716 6.03045 0 -0.526293 7.01733 0 -0.552735 5.8385 0
 -0.526293 7.01733 0 -1.57729 7.15703 0 -1.373 6.09652 0
 -0.552735 5.8385 0 -0.526293 7.01733 0 -1.373 6.09652 0
 -10.7131 5.98116 0 -11.8887 5.85354 0 -11.2128 5.03645 0
 -10.7131 5.98116 0 -10.1123 5.16797 0 -9.61397 6.06058 0
 -10.1123 5.16797 0 -10.7131 5.98116 0 -11.2128 5.03645 0
 -9.08236 5.19537 0 -8.53796 6.09938 0 -9.61397 6.06058 0
 -10.1123 5.16797 0 -9.08236 5.19537 0 -9.61397 6.06058 0
 -8.53796 6.09938 0 -9.08236 5.19537 0 -8.02722 5.18955 0
 -7.46561 6.11921 0 -8.53796 6.09938 0 -8.02722 5.18955 0
 -6.97963 5.21562 0 -7.46561 6.11921 0 -8.02722 5.18955 0
 -7.46561 6.11921 0 -6.97963 5.21562 0 -6.40897 6.11392 0
 -5.35242 6.06334 0 -6.40897 6.11392 0 -5.97337 5.18761 0
 -6.40897 6.11392 0 -6.97963 5.21562 0 -5.97337 5.18761 0
 -5.00214 5.09684 0 -5.35242 6.06334 0 -5.97337 5.18761 0
 -5.00214 5.09684 0 -4.29491 5.87673 0 -5.35242 6.06334 0
 -4.1564 4.95006 0 -3.21983 5.34485 0 -4.29491 5.87673 0
 -4.1564 4.95006 0 -4.29491 5.87673 0 -5.00214 5.09684 0
 -4.29491 5.87673 0 -3.21983 5.34485 0 -3.43273 6.66911 0
 -3.21983 5.34485 0 -2.36626 6.3298 0 -3.43273 6.66911 0
 -2.36626 6.3298 0 -2.58204 7.42814 0 -3.43273 6.66911 0
 -1.57729 7.15703 0 -2.58204 7.42814 0 -2.36626 6.3298 0
 5.84826 2.39577 0 5.98196 1.24441 0 6.89648 1.67939 0
 6.92339 2.796 0 5.84826 2.39577 0 6.89648 1.67939 0
 5.84826 2.39577 0 5.14811 1.69431 0 5.98196 1.24441 0
 4.70715 2.45945 0 5.14811 1.69431 0 5.84826 2.39577 0
 7.88645 2.24054 0 6.92339 2.796 0 6.89648 1.67939 0
 4.27718 1.54496 0 4.70715 2.45945 0 3.70876 2.37764 0
 4.70715 2.45945 0 4.27718 1.54496 0 5.14811 1.69431 0
 3.28878 1.37728 0 4.27718 1.54496 0 3.70876 2.37764 0
 2.68712 2.28036 0 3.28878 1.37728 0 3.70876 2.37764 0
 3.28878 1.37728 0 2.68712 2.28036 0 2.26656 1.22901 0
 2.68712 2.28036 0 1.6368 2.1875 0 2.26656 1.22901 0
 0.464135 4.14508 0 -0.0265845 3.14136 0 1.03483 3.16859 0
 0.545542 2.11231 0 1.6368 2.1875 0 1.03483 3.16859 0
 -0.0265845 3.14136 0 0.545542 2.11231 0 1.03483 3.16859 0
 2.26656 1.22901 0 1.6368 2.1875 0 1.21044 1.10323 0
 1.6368 2.1875 0 0.545542 2.11231 0 1.21044 1.10323 0
 0.464135 4.14508 0 -0.0775062 5.06596 0 -0.552448 4.1334 0
 -0.0265845 3.14136 0 0.464135 4.14508 0 -0.552448 4.1334 0
 -0.552735 5.8385 0 -1.03072 5.08639 0 -0.0775062 5.06596 0
 -0.0775062 5.06596 0 -1.03072 5.08639 0 -0.552448 4.1334 0
 -1.03072 5.08639 0 -0.552735 5.8385 0 -1.373 6.09652 0
 -1.57729 7.15703 0 -2.36626 6.3298 0 -1.373 6.09652 0
 -2.36626 6.3298 0 -2.03167 5.21283 0 -1.373 6.09652 0
 -2.03167 5.21283 0 -1.03072 5.08639 0 -1.373 6.09652 0
 -10.1123 5.16797 0 -11.2128 5.03645 0 -10.4705 4.25902 0
 -9.58526 4.44813 0 -9.08236 5.19537 0 -10.1123 5.16797 0
 -9.58526 4.44813 0 -10.1123 5.16797 0 -10.4705 4.25902 0
 -9.08236 5.19537 0 -9.58526 4.44813 0 -8.63084 4.13028 0
 -9.08236 5.19537 0 -8.63084 4.13028 0 -8.02722 5.18955 0
 -6.97963 5.21562 0 -8.02722 5.18955 0 -7.49014 4.32434 0
 -8.02722 5.18955 0 -8.63084 4.13028 0 -7.49014 4.32434 0
 -6.97963 5.21562 0 -6.5243 4.36083 0 -5.97337 5.18761 0
 -6.5243 4.36083 0 -6.97963 5.21562 0 -7.49014 4.32434 0
 -5.57488 4.28478 0 -5.00214 5.09684 0 -5.97337 5.18761 0
 -6.5243 4.36083 0 -5.57488 4.28478 0 -5.97337 5.18761 0
 -4.1564 4.95006 0 -5.00214 5.09684 0 -4.62126 4.20651 0
 -5.00214 5.09684 0 -5.57488 4.28478 0 -4.62126 4.20651 0
 -4.1564 4.95006 0 -4.62126 4.20651 0 -3.64857 4.20784 0
 -3.21983 5.34485 0 -4.1564 4.95006 0 -3.64857 4.20784 0
 -3.21983 5.34485 0 -2.61949 4.23135 0 -2.03167 5.21283 0
 -2.61949 4.23135 0 -3.21983 5.34485 0 -3.64857 4.20784 0
 -2.36626 6.3298 0 -3.21983 5.34485 0 -2.03167 5.21283 0
 5.98196 1.24441 0 5.14811 1.69431 0 4.92692 0.832238 0
 5.14811 1.69431 0 4.27718 1.54496 0 4.92692 0.832238 0
 4.27718 1.54496 0 3.28878 1.37728 0 3.90279 0.516622 0
 4.27718 1.54496 0 3.90279 0.516622 0 4.92692 0.832238 0
 3.90279 0.516622 0 3.28878 1.37728 0 2.89141 0.281314 0
 3.28878 1.37728 0 2.26656 1.22901 0 2.89141 0.281314 0
 2.26656 1.22901 0 1.8908 0.119648 0 2.89141 0.281314 0
 1.8908 0.119648 0 2.26656 1.22901 0 1.21044 1.10323 0
 -1.08286 3.16286 0 -0.0265845 3.14136 0 -0.552448 4.1334 0
 -0.0265845 3.14136 0 -1.08286 3.16286 0 -0.575992 2.11141 0
 0.545542 2.11231 0 -0.0265845 3.14136 0 -0.575992 2.11141 0
 0.545542 2.11231 0 -0.00489492 0.945543 0 1.21044 1.10323 0
 -0.00489492 0.945543 0 0.545542 2.11231 0 -0.575992 2.11141 0
 0.917934 0.0281131 0 1.8908 0.119648 0 1.21044 1.10323 0
 -0.00489492 0.945543 0 0.917934 0.0281131 0 1.21044 1.10323 0
 -1.57142 4.1749 0 -1.08286 3.16286 0 -0.552448 4.1334 0
 -1.03072 5.08639 0 -1.57142 4.1749 0 -0.552448 4.1334 0
 -1.57142 4.1749 0 -1.03072 5.08639 0 -2.03167 5.21283 0
 -2.61949 4.23135 0 -1.57142 4.1749 0 -2.03167 5.21283 0
 -9.62185 3.49261 0 -9.58526 4.44813 0 -10.4705 4.25902 0
 -8.63084 4.13028 0 -9.58526 4.44813 0 -9.62185 3.49261 0
 -8.63084 4.13028 0 -7.79314 3.3409 0 -7.49014 4.32434 0
 -8.63084 4.13028 0 -9.62185 3.49261 0 -8.83045 2.87469 0
 -7.79314 3.3409 0 -8.63084 4.13028 0 -8.83045 2.87469 0
 -6.5243 4.36083 0 -7.49014 4.32434 0 -6.97938 3.65889 0
 -7.49014 4.32434 0 -7.79314 3.3409 0 -6.97938 3.65889 0
 -6.5243 4.36083 0 -6.97938 3.65889 0 -6.16432 3.47792 0
 -5.57488 4.28478 0 -6.5243 4.36083 0 -6.16432 3.47792 0
 -5.17575 3.36536 0 -5.57488 4.28478 0 -6.16432 3.47792 0
 -5.57488 4.28478 0 -5.17575 3.36536 0 -4.62126 4.20651 0
 -4.62126 4.20651 0 -4.17224 3.3164 0 -3.64857 4.20784 0
 -4.62126 4.20651 0 -5.17575 3.36536 0 -4.17224 3.3164 0
 -4.17224 3.3164 0 -3.16455 3.27059 0 -3.64857 4.20784 0
 -3.16455 3.27059 0 -2.61949 4.23135 0 -3.64857 4.20784 0
 -2.13024 3.21686 0 -1.57142 4.1749 0 -2.61949 4.23135 0
 -2.13024 3.21686 0 -2.61949 4.23135 0 -3.16455 3.27059 0
 -1.57142 4.1749 0 -2.13024 3.21686 0 -1.08286 3.16286 0
 -1.08286 3.16286 0 -2.13024 3.21686 0 -1.66321 2.18454 0
 -0.575992 2.11141 0 -1.08286 3.16286 0 -1.66321 2.18454 0
 -1.22388 1.10209 0 -0.575992 2.11141 0 -1.66321 2.18454 0
 -0.00489492 0.945543 0 -0.575992 2.11141 0 -1.22388 1.10209 0
 -0.00489492 0.945543 0 -0.917934 0.0281131 0 -8.79563e-13 -3.60822e-16 0
 -0.00489492 0.945543 0 -1.22388 1.10209 0 -0.917934 0.0281131 0
 0.917934 0.0281131 0 -0.00489492 0.945543 0 -8.79563e-13 -3.60822e-16 0
 -7.79314 3.3409 0 -8.83045 2.87469 0 -7.88645 2.24054 0
 -6.92479 2.79566 0 -7.79314 3.3409 0 -7.88645 2.24054 0
 -7.79314 3.3409 0 -6.92479 2.79566 0 -6.97938 3.65889 0
 -6.97938 3.65889 0 -6.92479 2.79566 0 -6.16432 3.47792 0
 -5.85151 2.39384 0 -5.17575 3.36536 0 -6.16432 3.47792 0
 -6.92479 2.79566 0 -5.85151 2.39384 0 -6.16432 3.47792 0
 -4.17224 3.3164 0 -5.17575 3.36536 0 -4.71537 2.4561 0
 -5.17575 3.36536 0 -5.85151 2.39384 0 -4.71537 2.4561 0
 -3.72236 2.3739 0 -4.17224 3.3164 0 -4.71537 2.4561 0
 -3.72236 2.3739 0 -3.16455 3.27059 0 -4.17224 3.3164 0
 -3.16455 3.27059 0 -3.72236 2.3739 0 -2.70718 2.2766 0
 -2.13024 3.21686 0 -3.16455 3.27059 0 -2.70718 2.2766 0
 -1.66321 2.18454 0 -2.13024 3.21686 0 -2.70718 2.2766 0
 -2.27856 1.22715 0 -1.66321 2.18454 0 -2.70718 2.2766 0
 -1.22388 1.10209 0 -1.66321 2.18454 0 -2.27856 1.22715 0
 -1.8908 0.119648 0 -1.22388 1.10209 0 -2.27856 1.22715 0
 -0.917934 0.0281131 0 -1.22388 1.10209 0 -1.8908 0.119648 0
 -6.89648 1.67939 0 -6.92479 2.79566 0 -7.88645 2.24054 0
 -5.85151 2.39384 0 -6.92479 2.79566 0 -6.89648 1.67939 0
 -5.85151 2.39384 0 -5.15163 1.69272 0 -4.71537 2.4561 0
 -5.98196 1.24441 0 -5.85151 2.39384 0 -6.89648 1.67939 0
 -5.98196 1.24441 0 -5.15163 1.69272 0 -5.85151 2.39384 0
 -4.28326 1.54343 0 -3.72236 2.3739 0 -4.71537 2.4561 0
 -5.15163 1.69272 0 -4.28326 1.54343 0 -4.71537 2.4561 0
 -3.72236 2.3739 0 -3.29799 1.37538 0 -2.70718 2.2766 0
 -4.28326 1.54343 0 -3.29799 1.37538 0 -3.72236 2.3739 0
 -3.29799 1.37538 0 -2.27856 1.22715 0 -2.70718 2.2766 0
 -1.8908 0.119648 0 -2.27856 1.22715 0 -2.89141 0.281314 0
 -2.27856 1.22715 0 -3.29799 1.37538 0 -2.89141 0.281314 0
 -4.28326 1.54343 0 -5.15163 1.69272 0 -4.92692 0.832238 0
 -5.15163 1.69272 0 -5.98196 1.24441 0 -4.92692 0.832238 0
 -3.90279 0.516622 0 -4.28326 1.54343 0 -4.92692 0.832238 0
 -3.29799 1.37538 0 -4.28326 1.54343 0 -3.90279 0.516622 0
 -3.29799 1.37538 0 -3.90279 0.516622 0 -2.89141 0.281314 0

CELLS 1014 4056
 3 0 1 2
 3 3 4 5
 3 6 7 8
 3 9 10 11
 3 12 13 14
 3 15 16 17
 3 18 19 20
 3 21 22 23
 3 24 25 26
 3 27 28 29
 3 30 31 32
 3 33 34 35
 3 36 37 38
 3 39 40 41
 3 42 43 44
 3 45 46 47
 3 48 49 50
 3 51 52 53
 3 54 55 56
 3 57 58 59
 3 60 61 62
 3 63 64 65
 3 66 67 68
 3 69 70 71
 3 72 73 74
 3 75 76 77
 3 78 79 80
 3 81 82 83
 3 84 85 86
 3 87 88 89
 3 90 91 92
 3 93 94 95
 3 96 97 98
 3 99 100 101
 3 102 103 104
 3 105 106 107
 3 108 109 110
 3 111 112 113
 3 114 115 116
 3 117 118 119
 3 120 121 122
 3 123 124 125
 3 126 127 128
 3 129 130 131
 3 132 133 134
 3 135 136 137
 3 138 139 140
 3 141 142 143
 3 144 145 146
 3 147 148 149
 3 150 151 152
 3 153 154 155
 3 156 157 158
 3 159 160 161
 3 162 163 164
 3 165 166 167
 3 168 169 170
 3 171 172 173
 3 174 175 176
 3 177 178 179
 3 180 181 182
 3 183 184 185
 3 186 187 188
 3 189 190 191
 3 192 193 194
 3 195 196 197
 3 198 199 200
 3 201 202 203
 3 204 205 206
 3 207 208 209
 3 210 211 212
 3 213 214 215
 3 216 217 218
 3 219 220 221
 3 222 223 224
 3 225 226 227
 3 228 229 230
 3 231 232 233
 3 234 235 236
 3 237 238 239
 3 240 241 242
 3 243 244 245
 3 246 247 248
 3 249 250 251
 3 252 253 254
 3 255 256 257
 3 258 259 260
 3 261 262 263
 3 264 265 266
 3 267 268 269
 3 270 271 272
 3 273 274 275
 3 276 277 278
 3 279 280 281
 3 282 283 284
 3 285 286 287
 3 288 289 290
 3 291 292 293
 3 294 295 296
 3 297 298 299
 3 300 301 302
 3 303 304 305
 3 306 307 308
 3 309 310 311
 3 312 313 314
 3 315 316 317
 3 318 319 320
 3 321 322 323
 3 324 325 326
 3 327 328 329
 3 330 331 332
 3 333 334 335
 3 336 337 338
 3 339 340 341
 3 342 343 344
 3 345 346 347
 3 348 349 350
 3 351 352 353
 3 354 355 356
 3 357 358 359
 3 360 361 362
 3 363 364 365
 3 366 367 368
 3 369 370 371
 3 372 373 374
 3 375 376 377
 3 378 379 380
 3 381 382 383
 3 384 385 386
 3 387 388 389
 3 390 391 392
 3 393 394 395
 3 396 397 398
 3 399 400 401
 3 402 403 404
 3 405 406 407
 3 408 409 410
 3 411 412 413
 3 414 415 416
 3 417 418 419
 3 420 421 422
 3 423 424 425
 3 426 427 428
 3 429 430 431
 3 432 433 434
 3 435 436 437
 3 438 439 440
 3 441 442 443
 3 444 445 446
 3 447 448 449
 3 450 451 452
 3 453 454 455
 3 456 457 458
 3 459 460 461
 3 462 463 464
 3 465 466 467
 3 468 469 470
 3 471 472 473
 3 474 475 476
 3 477 478 479
 3 480 481 482
 3 483 484 485
 3 486 487 488
 3 489 490 491
 3 492 493 494
 3 495 496 497
 3 498 499 500
 3 501 502 503
 3 504 505 506
 3 507 508 509
 3 510 511 512
 3 513 514 515
 3 516 517 518
 3 519 520 521
 3 522 523 524
 3 525 526 527
 3 528 529 530
 3 531 532 533
 3 534 535 536
 3 537 538 539
 3 540 541 542
 3 543 544 545
 3 546 547 548
 3 549 550 551
 3 552 553 554
 3 555 556 557
 3 558 559 560
 3 561 562 563
 3 564 565 566
 3 567 568 569
 3 570 571 572
 3 573 574 575
 3 576 577 578
 3 579 580 581
 3 582 583 584
 3 585 586 587
 3 588 589 590
 3 591 592 593
 3 594 595 596
 3 597 598 599
 3 600 601 602
 3 603 604 605
 3 606 607 608
 3 609 610 611
 3 612 613 614
 3 615 616 617
 3 618 619 620
 3 621 622 623
 3 624 625 626
 3 627 628 629
 3 630 631 632
 3 633 634 635
 3 636 637 638
 3 639 640 641
 3 642 643 644
 3 645 646 647
 3 648 649 650
 3 651 652 653
 3 654 655 656
 3 657 658 659
 3 660 661 662
 3 663 664 665
 3 666 667 668
 3 669 670 671
 3 672 673 674
 3 675 676 677
 3 678 679 680
 3 681 682 683
 3 684 685 686
 3 687 688 689
 3 690 691 692
 3 693 694 695
 3 696 697 698
 3 699 700 701
 3 702 703 704
 3 705 706 707
 3 708 709 710
 3 711 712 713
 3 714 715 716
 3 717 718 719
 3 720 721 722
 3 723 724 725
 3 726 727 728
 3 729 730 731
 3 732 733 734
 3 735 736 737
 3 738 739 740
 3 741 742 743
 3 744 745 746
 3 747 748 749
 3 750 751 752
 3 753 754 755
 3 756 757 758
 3 759 760 761
 3 762 763 764
 3 765 766 767
 3 768 769 770
 3 771 772 773
 3 774 775 776
 3 777 778 779
 3 780 781 782
 3 783 784 785
 3 786 787 788
 3 789 790 791
 3 792 793 794
 3 795 796 797
 3 798 799 800
 3 801 802 803
 3 804 805 806
 3 807 808 809
 3 810 811 812
 3 813 814 815
 3 816 817 818
 3 819 820 821
 3 822 823 824
 3 825 826 827
 3 828 829 830
 3 831 832 833
 3 834 835 836
 3 837 838 839
 3 840 841 842
 3 843 844 845
 3 846 847 848
 3 849 850 851
 3 852 853 854
 3 855 856 857
 3 858 859 860
 3 861 862 863
 3 864 865 866
 3 867 868 869
 3 870 871 872
 3 873 874 875
 3 876 877 878
 3 879 880 881
 3 882 883 884
 3 885 886 887
 3 888 889 890
 3 891 892 893
 3 894 895 896
 3 897 898 899
 3 900 901 902
 3 903 904 905
 3 906 907 908
 3 909 910 911
 3 912 913 914
 3 915 916 917
 3 918 919 920
 3 921 922 923
 3 924 925 926
 3 927 928 929
 3 930 931 932
 3 933 934 935
 3 936 937 938
 3 939 940 941
 3 942 943 944
 3 945 946 947
 3 948 949 950
 3 951 952 953
 3 954 955 956
 3 957 958 959
 3 960 961 962
 3 963 964 965
 3 966 967 968
 3 969 970 971
 3 972 973 974
 3 975 976 977
 3 978 979 980
 3 981 982 983
 3 984 985 986
 3 987 988 989
 3 990 991 992
 3 993 994 995
 3 996 997 998
 3 999 1000 1001
 3 1002 1003 1004
 3 1005 1006 1007
 3 1008 1009 1010
 3 1011 1012 1013
 3 1014 1015 1016
 3 1017 1018 1019
 3 1020 1021 1022
 3 1023 1024 1025
 3 1026 1027 1028
 3 1029 1030 1031
 3 1032 1033 1034
 3 1035 1036 1037
 3 1038 1039 1040
 3 1041 1042 1043
 3 1044 1045 1046
 3 1047 1048 1049
 3 1050 1051 1052
 3 1053 1054 1055
 3 1056 1057 1058
 3 1059 1060 1061
 3 1062 1063 1064
 3 1065 1066 1067
 3 1068 1069 1070
 3 1071 1072 1073
 3 1074 1075 1076
 3 1077 1078 1079
 3 1080 1081 1082
 3 1083 1084 1085
 3 1086 1087 1088
 3 1089 1090 1091
 3 1092 1093 1094
 3 1095 1096 1097
 3 1098 1099 1100
 3 1101 1102 1103
 3 1104 1105 1106
 3 1107 1108 1109
 3 1110 1111 1112
 3 1113 1114 1115
 3 1116 1117 1118
 3 1119 1120 1121
 3 1122 1123 1124
 3 1125 1126 1127
 3 1128 1129 1130
 3 1131 1132 1133
 3 1134 1135 1136
 3 1137 1138 1139
 3 1140 1141 1142
 3 1143 1144 1145
 3 1146 1147 1148
 3 1149 1150 1151
 3 1152 1153 1154
 3 1155 1156 1157
 3 1158 1159 1160
 3 1161 1162 1163
 3 1164 1165 1166
 3 1167 1168 1169
 3 1170 1171 1172
 3 1173 1174 1175
 3 1176 1177 1178
 3 1179 1180 1181
 3 1182 1183 1184
 3 1185 1186 1187
 3 1188 1189 1190
 3 1191 1192 1193
 3 1194 1195 1196
 3 1197 1198 1199
 3 1200 1201 1202
 3 1203 1204 1205
 3 1206 1207 1208
 3 1209 1210 1211
 3 1212 1213 1214
 3 1215 1216 1217
 3 1218 1219 1220
 3 1221 1222 1223
 3 1224 1225 1226
 3 1227 1228 1229
 3 1230 1231 1232
 3 1233 1234 1235
 3 1236 1237 1238
 3 1239 1240 1241
 3 1242 1243 1244
 3 1245 1246 1247
 3 1248 1249 1250
 3 1251 1252 1253
 3 1254 1255 1256
 3 1257 1258 1259
 3 1260 1261 1262
 3 1263 1264 1265
 3 1266 1267 1268
 3 1269 1270 1271
 3 1272 1273 1274
 3 1275 1276 1277
 3 1278 1279 1280
 3 1281 1282 1283
 3 1284 1285 1286
 3 1287 1288 1289
 3 1290 1291 1292
 3 1293 1294 1295
 3 1296 1297 1298
 3 1299 1300 1301
 3 1302 1303 1304
 3 1305 1306 1307
 3 1308 1309 1310
 3 1311 1312 1313
 3 1314 1315 1316
 3 1317 1318 1319
 3 1320 1321 1322
 3 1323 1324 1325
 3 1326 1327 1328
 3 1329 1330 1331
 3 1332 1333 1334
 3 1335 1336 1337
 3 1338 1339 1340
 3 1341 1342 1343
 3 1344 1345 1346
 3 1347 1348 1349
 3 1350 1351 1352
 3 1353 1354 1355
 3 1356 1357 1358
 3 1359 1360 1361
 3 1362 1363 1364
 3 1365 1366 1367
 3 1368 1369 1370
 3 1371 1372 1373
 3 1374 1375 1376
 3 1377 1378 1379
 3 1380 1381 1382
 3 1383 1384 1385
 3 1386 1387 1388
 3 1389 1390 1391
 3 1392 1393 1394
 3 1395 1396 1397
 3 1398 1399 1400
 3 1401 1402 1403
 3 1404 1405 1406
 3 1407 1408 1409
 3 1410 1411 1412
 3 1413 1414 1415
 3 1416 1417 1418
 3 1419 1420 1421
 3 1422 1423 1424
 3 1425 1426 1427
 3 1428 1429 1430
 3 1431 1432 1433
 3 1434 1435 1436
 3 1437 1438 1439
 3 1440 1441 1442
 3 1443 1444 1445
 3 1446 1447 1448
 3 1449 1450 1451
 3 1452 1453 1454
 3 1455 1456 1457
 3 1458 1459 1460
 3 1461 1462 1463
 3 1464 1465 1466
 3 1467 1468 1469
 3 1470 1471 1472
 3 1473 1474 1475
 3 1476 1477 1478
 3 1479 1480 1481
 3 1482 1483 1484
 3 1485 1486 1487
 3 1488 1489 1490
 3 1491 1492 1493
 3 1494 1495 1496
 3 1497 1498 1499
 3 1500 1501 1502
 3 1503 1504 1505
 3 1506 1507 1508
 3 1509 1510 1511
 3 1512 1513 1514
 3 1515 1516 1517
 3 1518 1519 1520
 3 1521 1522 1523
 3 1524 1525 1526
 3 1527 1528 1529
 3 1530 1531 1532
 3 1533 1534 1535
 3 1536 1537 1538
 3 1539 1540 1541
 3 1542 1543 1544
 3 1545 1546 1547
 3 1548 1549 1550
 3 1551 1552 1553
 3 1554 1555 1556
 3 1557 1558 1559
 3 1560 1561 1562
 3 1563 1564 1565
 3 1566 1567 1568
 3 1569 1570 1571
 3 1572 1573 1574
 3 1575 1576 1577
 3 1578 1579 1580
 3 1581 1582 1583
 3 1584 1585 1586
 3 1587 1588 1589
 3 1590 1591 1592
 3 1593 1594 1595
 3 1596 1597 1598
 3 1599 1600 1601
 3 1602 1603 1604
 3 1605 1606 1607
 3 1608 1609 1610
 3 1611 1612 1613
 3 1614 1615 1616
 3 1617 1618 1619
 3 1620 1621 1622
 3 1623 1624 1625
 3 1626 1627 1628
 3 1629 1630 1631
 3 1632 1633 1634
 3 1635 1636 1637
 3 1638 1639 1640
 3 1641 1642 1643
 3 1644 1645 1646
 3 1647 1648 1649
 3 1650 1651 1652
 3 1653 1654 1655
 3 1656 1657 1658
 3 1659 1660 1661
 3 1662 1663 1664
 3 1665 1666 1667
 3 1668 1669 1670
 3 1671 1672 1673
 3 1674 1675 1676
 3 1677 1678 1679
 3 1680 1681 1682
 3 1683 1684 1685
 3 1686 1687 1688
 3 1689 1690 1691
 3 1692 1693 1694
 3 1695 1696 1697
 3 1698 1699 1700
 3 1701 1702 1703
 3 1704 1705 1706
 3 1707 1708 1709
 3 1710 1711 1712
 3 1713 1714 1715
 3 1716 1717 1718
 3 1719 1720 1721
 3 1722 1723 1724
 3 1725 1726 1727
 3 1728 1729 1730
 3 1731 1732 1733
 3 1734 1735 1736
 3 1737 1738 1739
 3 1740 1741 1742
 3 1743 1744 1745
 3 1746 1747 1748
 3 1749 1750 1751
 3 1752 1753 1754
 3 1755 1756 1757
 3 1758 1759 1760
 3 1761 1762 1763
 3 1764 1765 1766
 3 1767 1768 1769
 3 1770 1771 1772
 3 1773 1774 1775
 3 1776 1777 1778
 3 1779 1780 1781
 3 1782 1783 1784
 3 1785 1786 1787
 3 1788 1789 1790
 3 1791 1792 1793
 3 1794 1795 1796
 3 1797 1798 1799
 3 1800 1801 1802
 3 1803 1804 1805
 3 1806 1807 1808
 3 1809 1810 1811
 3 1812 1813 1814
 3 1815 1816 1817
 3 1818 1819 1820
 3 1821 1822 1823
 3 1824 1825 1826
 3 1827 1828 1829
 3 1830 1831 1832
 3 1833 1834 1835
 3 1836 1837 1838
 3 1839 1840 1841
 3 1842 1843 1844
 3 1845 1846 1847
 3 1848 1849 1850
 3 1851 1852 1853
 3 1854 1855 1856
 3 1857 1858 1859
 3 1860 1861 1862
 3 1863 1864 1865
 3 1866 1867 1868
 3 1869 1870 1871
 3 1872 1873 1874
 3 1875 1876 1877
 3 1878 1879 1880
 3 1881 1882 1883
 3 1884 1885 1886
 3 1887 1888 1889
 3 1890 1891 1892
 3 1893 1894 1895
 3 1896 1897 1898
 3 1899 1900 1901
 3 1902 1903 1904
 3 1905 1906 1907
 3 1908 1909 1910
 3 1911 1912 1913
 3 1914 1915 1916
 3 1917 1918 1919
 3 1920 1921 1922
 3 1923 1924 1925
 3 1926 1927 1928
 3 1929 1930 1931
 3 1932 1933 1934
 3 1935 1936 1937
 3 1938 1939 1940
 3 1941 1942 1943
 3 1944 1945 1946
 3 1947 1948 1949
 3 1950 1951 1952
 3 1953 1954 1955
 3 1956 1957 1958
 3 1959 1960 1961
 3 1962 1963 1964
 3 1965 1966 1967
 3 1968 1969 1970
 3 1971 1972 1973
 3 1974 1975 1976
 3 1977 1978 1979
 3 1980 1981 1982
 3 1983 1984 1985
 3 1986 1987 1988
 3 1989 1990 1991
 3 1992 1993 1994
 3 1995 1996 1997
 3 1998 1999 2000
 3 2001 2002 2003
 3 2004 2005 2006
 3 2007 2008 2009
 3 2010 2011 2012
 3 2013 2014 2015
 3 2016 2017 2018
 3 2019 2020 2021
 3 2022 2023 2024
 3 2025 2026 2027
 3 2028 2029 2030
 3 2031 2032 2033
 3 2034 2035 2036
 3 2037 2038 2039
 3 2040 2041 2042
 3 2043 2044 2045
 3 2046 2047 2048
 3 2049 2050 2051
 3 2052 2053 2054
 3 2055 2056 2057
 3 2058 2059 2060
 3 2061 2062 2063
 3 2064 2065 2066
 3 2067 2068 2069
 3 2070 2071 2072
 3 2073 2074 2075
 3 2076 2077 2078
 3 2079 2080 2081
 3 2082 2083 2084
 3 2085 2086 2087
 3 2088 2089 2090
 3 2091 2092 2093
 3 2094 2095 2096
 3 2097 2098 2099
 3 2100 2101 2102
 3 2103 2104 2105
 3 2106 2107 2108
 3 2109 2110 2111
 3 2112 2113 2114
 3 2115 2116 2117
 3 2118 2119 2120
 3 2121 2122 2123
 3 2124 2125 2126
 3 2127 2128 2129
 3 2130 2131 2132
 3 2133 2134 2135
 3 2136 2137 2138
 3 2139 2140 2141
 3 2142 2143 2144
 3 2145 2146 2147
 3 2148 2149 2150
 3 2151 2152 2153
 3 2154 2155 2156
 3 2157 2158 2159
 3 2160 2161 2162
 3 2163 2164 2165
 3 2166 2167 2168
 3 2169 2170 2171
 3 2172 2173 2174
 3 2175 2176 2177
 3 2178 2179 2180
 3 2181 2182 2183
 3 2184 2185 2186
 3 2187 2188 2189
 3 2190 2191 2192
 3 2193 2194 2195
 3 2196 2197 2198
 3 2199 2200 2201
 3 2202 2203 2204
 3 2205 2206 2207
 3 2208 2209 2210
 3 2211 2212 2213
 3 2214 2215 2216
 3 2217 2218 2219
 3 2220 2221 2222
 3 2223 2224 2225
 3 2226 2227 2228
 3 2229 2230 2231
 3 2232 2233 2234
 3 2235 2236 2237
 3 2238 2239 2240
 3 2241 2242 2243
 3 2244 2245 2246
 3 2247 2248 2249
 3 2250 2251 2252
 3 2253 2254 2255
 3 2256 2257 2258
 3 2259 2260 2261
 3 2262 2263 2264
 3 2265 2266 2267
 3 2268 2269 2270
 3 2271 2272 2273
 3 2274 2275 2276
 3 2277 2278 2279
 3 2280 2281 2282
 3 2283 2284 2285
 3 2286 2287 2288
 3 2289 2290 2291
 3 2292 2293 2294
 3 2295 2296 2297
 3 2298 2299 2300
 3 2301 2302 2303
 3 2304 2305 2306
 3 2307 2308 2309
 3 2310 2311 2312
 3 2313 2314 2315
 3 2316 2317 2318
 3 2319 2320 2321
 3 2322 2323 2324
 3 2325 2326 2327
 3 2328 2329 2330
 3 2331 2332 2333
 3 2334 2335 2336
 3 2337 2338 2339
 3 2340 2341 2342
 3 2343 2344 2345
 3 2346 2347 2348
 3 2349 2350 2351
 3 2352 2353 2354
 3 2355 2356 2357
 3 2358 2359 2360
 3 2361 2362 2363
 3 2364 2365 2366
 3 2367 2368 2369
 3 2370 2371 2372
 3 2373 2374 2375
 3 2376 2377 2378
 3 2379 2380 2381
 3 2382 2383 2384
 3 2385 2386 2387
 3 2388 2389 2390
 3 2391 2392 2393
 3 2394 2395 2396
 3 2397 2398 2399
 3 2400 2401 2402
 3 2403 2404 2405
 3 2406 2407 2408
 3 2409 2410 2411
 3 2412 2413 2414
 3 2415 2416 2417
 3 2418 2419 2420
 3 2421 2422 2423
 3 2424 2425 2426
 3 2427 2428 2429
 3 2430 2431 2432
 3 2433 2434 2435
 3 2436 2437 2438
 3 2439 2440 2441
 3 2442 2443 2444
 3 2445 2446 2447
 3 2448 2449 2450
 3 2451 2452 2453
 3 2454 2455 2456
 3 2457 2458 2459
 3 2460 2461 2462
 3 2463 2464 2465
 3 2466 2467 2468
 3 2469 2470 2471
 3 2472 2473 2474
 3 2475 2476 2477
 3 2478 2479 2480
 3 2481 2482 2483
 3 2484 2485 2486
 3 2487 2488 2489
 3 2490 2491 2492
 3 2493 2494 2495
 3 2496 2497 2498
 3 2499 2500 2501
 3 2502 2503 2504
 3 2505 2506 2507
 3 2508 2509 2510
 3 2511 2512 2513
 3 2514 2515 2516
 3 2517 2518 2519
 3 2520 2521 2522
 3 2523 2524 2525
 3 2526 2527 2528
 3 2529 2530 2531
 3 2532 2533 2534
 3 2535 2536 2537
 3 2538 2539 2540
 3 2541 2542 2543
 3 2544 2545 2546
 3 2547 2548 2549
 3 2550 2551 2552
 3 2553 2554 2555
 3 2556 2557 2558
 3 2559 2560 2561
 3 2562 2563 2564
 3 2565 2566 2567
 3 2568 2569 2570
 3 2571 2572 2573
 3 2574 2575 2576
 3 2577 2578 2579
 3 2580 2581 2582
 3 2583 2584 2585
 3 2586 2587 2588
 3 2589 2590 2591
 3 2592 2593 2594
 3 2595 2596 2597
 3 2598 2599 2600
 3 2601 2602 2603
 3 2604 2605 2606
 3 2607 2608 2609
 3 2610 2611 2612
 3 2613 2614 2615
 3 2616 2617 2618
 3 2619 2620 2621
 3 2622 2623 2624
 3 2625 2626 2627
 3 2628 2629 2630
 3 2631 2632 2633
 3 2634 2635 2636
 3 2637 2638 2639
 3 2640 2641 2642
 3 2643 2644 2645
 3 2646 2647 2648
 3 2649 2650 2651
 3 2652 2653 2654
 3 2655 2656 2657
 3 2658 2659 2660
 3 2661 2662 2663
 3 2664 2665 2666
 3 2667 2668 2669
 3 2670 2671 2672
 3 2673 2674 2675
 3 2676 2677 2678
 3 2679 2680 2681
 3 2682 2683 2684
 3 2685 2686 2687
 3 2688 2689 2690
 3 2691 2692 2693
 3 2694 2695 2696
 3 2697 2698 2699
 3 2700 2701 2702
 3 2703 2704 2705
 3 2706 2707 2708
 3 2709 2710 2711
 3 2712 2713 2714
 3 2715 2716 2717
 3 2718 2719 2720
 3 2721 2722 2723
 3 2724 2725 2726
 3 2727 2728 2729
 3 2730 2731 2732
 3 2733 2734 2735
 3 2736 2737 2738
 3 2739 2740 2741
 3 2742 2743 2744
 3 2745 2746 2747
 3 2748 2749 2750
 3 2751 2752 2753
 3 2754 2755 2756
 3 2757 2758 2759
 3 2760 2761 2762
 3 2763 2764 2765
 3 2766 2767 2768
 3 2769 2770 2771
 3 2772 2773 2774
 3 2775 2776 2777
 3 2778 2779 2780
 3 2781 2782 2783
 3 2784 2785 2786
 3 2787 2788 2789
 3 2790 2791 2792
 3 2793 2794 2795
 3 2796 2797 2798
 3 2799 2800 2801
 3 2802 2803 2804
 3 2805 2806 2807
 3 2808 2809 2810
 3 2811 2812 2813
 3 2814 2815 2816
 3 2817 2818 2819
 3 2820 2821 2822
 3 2823 2824 2825
 3 2826 2827 2828
 3 2829 2830 2831
 3 2832 2833 2834
 3 2835 2836 2837
 3 2838 2839 2840
 3 2841 2842 2843
 3 2844 2845 2846
 3 2847 2848 2849
 3 2850 2851 2852
 3 2853 2854 2855
 3 2856 2857 2858
 3 2859 2860 2861
 3 2862 2863 2864
 3 2865 2866 2867
 3 2868 2869 2870
 3 2871 2872 2873
 3 2874 2875 2876
 3 2877 2878 2879
 3 2880 2881 2882
 3 2883 2884 2885
 3 2886 2887 2888
 3 2889 2890 2891
 3 2892 2893 2894
 3 2895 2896 2897
 3 2898 2899 2900
 3 2901 2902 2903
 3 2904 2905 2906
 3 2907 2908 2909
 3 2910 2911 2912
 3 2913 2914 2915
 3 2916 2917 2918
 3 2919 2920 2921
 3 2922 2923 2924
 3 2925 2926 2927
 3 2928 2929 2930
 3 2931 2932 2933
 3 2934 2935 2936
 3 2937 2938 2939
 3 2940 2941 2942
 3 2943 2944 2945
 3 2946 2947 2948
 3 2949 2950 2951
 3 2952 2953 2954
 3 2955 2956 2957
 3 2958 2959 2960
 3 2961 2962 2963
 3 2964 2965 2966
 3 2967 2968 2969
 3 2970 2971 2972
 3 2973 2974 2975
 3 2976 2977 2978
 3 2979 2980 2981
 3 2982 2983 2984
 3 2985 2986 2987
 3 2988 2989 2990
 3 2991 2992 2993
 3 2994 2995 2996
 3 2997 2998 2999
 3 3000 3001 3002
 3 3003 3004 3005
 3 3006 3007 3008
 3 3009 3010 3011
 3 3012 3013 3014
 3 3015 3016 3017
 3 3018 3019 3020
 3 3021 3022 3023
 3 3024 3025 3026
 3 3027 3028 3029
 3 3030 3031 3032
 3 3033 3034 3035
 3 3036 3037 3038
 3 3039 3040 3041

CELL_TYPES 1014
 5
 5
 5
 5
 5
 5
 5
 5
 5
 5
 5
 5
 5
 5
 5
 5
 5
 5
 5
 5
 5
 5
 5
 5
 5
 5
 5
 5
 5
 5
 5
 5
 5
 5
 5
 5
 5
 5
 5
 5
 5
 5
 5
 5
 5
 5
 5
 5
 5
 5
 5
 5
 5
 5
 5
 5
 5
 5
 5
 5
 5
 5
 5
 5
 5
 5
 5
 5
 5
 5
 5
 5
 5
 5
 5
 5
 5
 5
 5
 5
 5
 5
 5
 5
 5
 5
 5
 5
 5
 5
 5
 5
 5
 5
 5
 5
 5
 5
 5
 5
 5
 5
 5
 5
 5
 5
 5
 5
 5
 5
 5
 5
 5
 5
 5
 5
 5
 5
 5
 5
 5
 5
 5
 5
 5
 5
 5
 5
 5
 5
 5
 5
 5
 5
 5
 5
 5
 5
 5
 5
 5
 5
 5
 5
 5
 5
 5
 5
 5
 5
 5
 5
 5
 5
 5
 5
 5
 5
 5
 5
 5
 5
 5
 5
 5
 5
 5
 5
 5
 5
 5
 5
 5
 5
 5
 5
 5
 5
 5
 5
 5
 5
 5
 5
 5
 5
 5
 5
 5
 5
 5
 5
 5
 5
 5
 5
 5
 5
 5
 5
 5
 5
 5
 5
 5
 5
 5
 5
 5
 5
 5
 5
 5
 5
 5
 5
 5
 5
 5
 5
 5
 5
 5
 5
 5
 5
 5
 5
 5
 5
 5
 5
 5
 5
 5
 5
 5
 5
 5
 5
 5
 5
 5
 5
 5
 5
 5
 5
 5
 5
 5
 5
 5
 5
 5
 5
 5
 5
 5
 5
 5
 5
 5
 5
 5
 5
 5
 5
 5
 5
 5
 5
 5
 5
 5
 5
 5
 5
 5
 5
 5
 5
 5
 5
 5
 5
 5
 5
 5
 5
 5
 5
 5
 5
 5
 5
 5
 5
 5
 5
 5
 5
 5
 5
 5
 5
 5
 5
 5
 5
 5
 5
 5
 5
 5
 5
 5
 5
 5
 5
 5
 5
 5
 5
 5
 5
 5
 5
 5
 5
 5
 5
 5
 5
 5
 5
 5
 5
 5
 5
 5
 5
 5
 5
 5
 5
 5
 5
 5
 5
 5
 5
 5
 5
 5
 5
 5
 5
 5
 5
 5
 5
 5
 5
 5
 5
 5
 5
 5
 5
 5
 5
 5
 5
 5
 5
 5
 5
 5
 5
 5
 5
 5
 5
 5
 5
 5
 5
 5
 5
 5
 5
 5
 5
 5
 5
 5
 5
 5
 5
 5
 5
 5
 5
 5
 5
 5
 5
 5
 5
 5
 5
 5
 5
 5
 5
 5
 5
 5
 5
 5
 5
 5
 5
 5
 5
 5
 5
 5
 5
 5
 5
 5
 5
 5
 5
 5
 5
 5
 5
 5
 5
 5
 5
 5
 5
 5
 5
 5
 5
 5
 5
 5
 5
 5
 5
 5
 5
 5
 5
 5
 5
 5
 5
 5
 5
 5
 5
 5
 5
 5
 5
 5
 5
 5
 5
 5
 5
 5
 5
 5
 5
 5
 5
 5
 5
 5
 5
 5
 5
 5
 5
 5
 5
 5
 5
 5
 5
 5
 5
 5
 5
 5
 5
 5
 5
 5
 5
 5
 5
 5
 5
 5
 5
 5
 5
 5
 5
 5
 5
 5
 5
 5
 5
 5
 5
 5
 5
 5
 5
 5
 5
 5
 5
 5
 5
 5
 5
 5
 5
 5
 5
 5
 5
 5
 5
 5
 5
 5
 5
 5
 5
 5
 5
 5
 5
 5
 5
 5
 5
 5
 5
 5
 5
 5
 5
 5
 5
 5
 5
 5
 5
 5
 5
 5
 5
 5
 5
 5
 5
 5
 5
 5
 5
 5
 5
 5
 5
 5
 5
 5
 5
 5
 5
 5
 5
 5
 5
 5
 5
 5
 5
 5
 5
 5
 5
 5
 5
 5
 5
 5
 5
 5
 5
 5
 5
 5
 5
 5
 5
 5
 5
 5
 5
 5
 5
 5
 5
 5
 5
 5
 5
 5
 5
 5
 5
 5
 5
 5
 5
 5
 5
 5
 5
 5
 5
 5
 5
 5
 5
 5
 5
 5
 5
 5
 5
 5
 5
 5
 5
 5
 5
 5
 5
 5
 5
 5
 5
 5
 5
 5
 5
 5
 5
 5
 5
 5
 5
 5
 5
 5
 5
 5
 5
 5
 5
 5
 5
 5
 5
 5
 5
 5
 5
 5
 5
 5
 5
 5
 5
 5
 5
 5
 5
 5
 5
 5
 5
 5
 5
 5
 5
 5
 5
 5
 5
 5
 5
 5
 5
 5
 5
 5
 5
 5
 5
 5
 5
 5
 5
 5
 5
 5
 5
 5
 5
 5
 5
 5
 5
 5
 5
 5
 5
 5
 5
 5
 5
 5
 5
 5
 5
 5
 5
 5
 5
 5
 5
 5
 5
 5
 5
 5
 5
 5
 5
 5
 5
 5
 5
 5
 5
 5
 5
 5
 5
 5
 5
 5
 5
 5
 5
 5
 5
 5
 5
 5
 5
 5
 5
 5
 5
 5
 5
 5
 5
 5
 5
 5
 5
 5
 5
 5
 5
 5
 5
 5
 5
 5
 5
 5
 5
 5
 5
 5
 5
 5
 5
 5
 5
 5
 5
 5
 5
 5
 5
 5
 5
 5
 5
 5
 5
 5
 5
 5
 5
 5
 5
 5
 5
 5
 5
 5
 5
 5
 5
 5
 5
 5
 5
 5
 5
 5
 5
 5
 5
 5
 5
 5
 5
 5
 5
 5
 5
 5
 5
 5
 5
 5
 5
 5
 5
 5
 5
 5
 5
 5
 5
 5
 5
 5
 5
 5
 5
 5
 5
 5
 5
 5
 5
 5
 5
 5
 5
 5
 5
 5
 5
 5
 5
 5
 5
 5
 5
 5
 5
 5
 5
 5
 5
 5
 5
 5
 5
 5
 5
 5
 5
 5
 5
 5
 5
 5
 5
 5
 5
 5
 5
 5
 5
 5
 5
 5
 5
 5
 5
 5
 5
 5
 5
 5
 5
 5
 5
 5
 5
 5
 5
 5
 5
 5
 5
 5
 5
 5
 5
 5
 5
 5
 5
 5
 5
 5
 5
 5
 5
 5
 5
 5
 5
 5
 5
 5
 5
 5
 5
 5
 5
 5
 5
 5
 5
 5
 5
 5
 5
 5
 5
 5
 5
 5
 5
 5
 5
 5
 5
 5
 5
 5
 5
 5
 5
 5
 5
 5
 5
 5
 5
 5
 5
 5
 5
 5
 5


POINT_DATA 3042


SCALARS Von_Mises_Stresses float 1
LOOKUP_TABLE default
 8044.24 5909.17 9528.85 10233.8 8101.65 10355.2 8038.53 10170.1 8418.6 5933.78 7727.86 8696.57 10752.5 7713.73 9638.26 8006.97 5712.92 5768.26 5620.02 6067.97 2127.71 10686.8 9813.07 13730.5 11370.6 10117.8 11600.8 9884.63 10604.6 11877.3 9958.24 10096.9 8554.49 9953.49 10103.2 10888.1 10203.6 11326.9 10877.7 10776.8 13562.1 11843 14088.4 10394.4 13821.6 10054.5 9290.66 8589.14 9457.2 7690.92 8415.21 7621.16 6006.48 8552.03 5722.19 7846.41 5032.25 2119.29 5894.31 5014.51 1893.07 5298.42 1692.12 13941 14080.9 18182 12364.7 11286.9 11721.5 11333.1 12273.6 11661.1 10845.2 11289.9 11679.1 13735.4 13523.7 11617.9 13386.9 12327.6 11780.8 9341.63 9973.77 10257.8 10156.2 10063.6 10672.5 10700.3 10022.7 10834.9 11219.2 10627.1 10895.1 11223 10892.4 11635.3 13384.4 14075.4 15588.1 13542.9 18259.7 17657.5 15680.7 14021.5 17222.7 9409.14 10199.2 9860.59 9012.34 9297.78 9967.78 7795.82 9345.35 8991.8 7622.19 9134.34 7536.31 7662 7533.4 5208.44 4991.81 5813.8 1912.67 7682.71 5774.48 4981.46 5773.86 6269.36 2383.35 2214.14 6469.39 5656.41 18503.5 23845.6 17530.4 12243 13422.6 13363 11633.6 12296 12452 12321.1 13308.1 12427.6 11791.9 11678.2 12412.2 11188.8 11669.5 11800.2 13386.6 15493.4 14761.6 13296.7 13494.4 14694.3 10236 10502 10221.1 10167.1 10294.1 9881.57 10190.1 10639.3 10538.8 10665 11191.8 10870.8 10476.9 10691.9 10851.4 11218.7 11775.6 11253.4 10830.3 11225.1 11252.2 15662 16774.3 14627.5 15610.1 18718.3 16818.9 18864.8 15453.2 17424.1 23676 18941.3 17399.9 9774.45 9103.04 9881.29 10163.9 9778.59 9866.69 10240 10089.2 9942.84 8994.03 9872.34 9026.48 7669.06 8998.18 9038.22 7843.53 5982.93 7487.67 7814.67 7527.17 9162.65 6088.08 5821.07 7999.25 7852.8 6294.9 8813.21 6117.72 8138.21 5810.41 6355.41 7816.41 8674.07 8197.46 9542.67 5943.09 23445.6 18587.3 24462.9 23337.1 24615.3 29865.4 14212.8 13319.2 14665.8 13314.3 13153.3 12413.9 13113.7 13362.3 14184.1 12380.3 11771.9 12433 13129.7 12370.7 12450.1 11679.2 11798.8 12357.1 11794.3 11688.8 11248.4 15648.3 14131.1 14765.3 16662.2 15677.6 14738.4 10497.1 10834.6 10504.1 10231.2 10528.1 10480.4 10483.2 10280.3 10237.9 10130 10100.3 10224.5 10246.3 10076.4 10277.6 10867.3 10776.1 10465.3 10788 10848.2 11241.9 11068.8 10767.7 11256.2 11673 11068.7 11256.1 19351.2 17581.9 16841.7 17568.2 15552.4 16816.9 18924.2 19548.7 16623.2 22927.5 19561.4 18946.1 9772.01 9896 9132.15 10165.8 9881.49 9777.88 10097.5 10100.4 9849.97 10095.8 10054.2 10099 10150.7 10088.1 9997.91 9397.31 7982.95 9016.17 9978.15 9353.98 9042.53 7895.6 9497.63 8547.12 10216 8156.51 8553.79 8210.8 10284.1 10396.5 7850.15 10796.8 9656.93 9347.33 10090.7 8715.2 10131.3 10009.8 8681.78 9833.75 10741.3 13753.7 19335.6 23191.2 22993.5 28380.5 23017.6 29962.6 23474 27721 22871.5 36398.3 28048.1 30357.8 13704.6 13157.5 14147.2 15565.1 14878.2 14216.2 14869.1 13643 14220.9 12365 13133.1 12885.7 13167.5 13694.5 12874 12312.4 12392 12873.9 12304.7 11641.3 12390.3 11622.8 11095.3 11101.4 11683.1 12275.7 11621.4 11054.1 11686.8 11606.7 15695.1 17422.1 16335.8 14782.6 15676.9 16322.8 10048.5 10242.7 10469 10274.2 10008.3 10499.2 10767 10291.7 10477.8 9839.47 10269 10023.3 9883.29 10086.7 10233.4 10014.8 10072.2 9785.21 10111.3 9854.02 9744.26 10777.9 11066.8 10630.7 10257.4 10791.8 10620.5 11103.7 11084 10597 17418.1 19545 19932.7 19899.2 19673 22613.2 18064.8 17630.8 19699 17566 18069.1 16214.9 9895.83 10299.1 10185.8 9956.62 10091.5 10246.2 9463.06 9873.84 10216.1 10102.5 10131.5 10231.5 10153.5 9998.04 10089.5 10074.1 10014.5 9785.98 10025.5 9703.77 9766.16 9704 10025.2 9765.7 10014 9399.09 10271.4 10910.2 10152.4 9995.73 10249.7 10900.2 11350 11625.6 10166.3 11393.3 10647.9 9938.16 11900.2 10443.5 14106.9 13843.4 13579.7 10816.9 11869.6 10858.6 10062.5 10714.4 10102 10175.3 10687.6 14104.1 13963.5 18204.1 22645.2 19713.3 22810.4 22537.5 23061.2 26248.9 22652.6 27913.3 26757.8 28395 32880.7 26505.1 27823.1 36445.2 33626.3 33180.3 36879.9 43869.4 14783.1 14108.5 13740.6 13644.1 13048.8 12928.6 14095 12990.8 13732.4 14016.8 14869.8 15409.5 14881.2 16212.9 15425.5 13036.3 12270.7 12927.4 12330.8 12269.2 11542.1 12991.5 12280.9 12321.9 17907.4 16792.2 16360 16321.6 16785.2 15333.7 20088.3 17916.3 19862.1 20050.2 19987.6 22316.8 18104.4 19869.7 18358.7 18039.3 18365.7 16676.7 10253.9 10227.7 10509.6 10078.3 10249.1 10284.1 10244.3 10282.8 10491.5 10655.2 10208.9 10545.4 9854.87 10113.1 9745.1 10236.8 10088.2 9884.14 11230.6 10917.1 10643.7 11650.7 10914.7 11234.4 10868.5 11693.8 11314.6 12380.6 11745.6 11311.2 11676 12289.9 11356.8 13538.1 13752.3 11642.9 12344 13401.5 11804.2 18282.7 13563.1 17674.3 14037.8 15694.2 17239.1 14092.9 13399.9 15601.4 10858.6 10707 10485.2 10877.6 11203.8 10680.7 23872.4 18527.3 17548 22317.7 19880.2 22476.4 25155 22236 22658 25549.7 22338.7 26412.7 30044.2 25348.8 26779.1 33017.9 30671.1 26307.1 39725.4 33068.9 43874 38675.7 30203.9 33761 52419.5 39003.4 44435.7 14107.5 14741.4 13858.5 14755.6 14091.2 15334.6 14091.7 13849.6 12991.8 13066.4 14003.7 13072.1 12208.2 13062.4 13064.4 15798.9 14730.8 15406.5 16669.8 15807.5 15437.1 16811.7 18213.9 17087.4 15724.1 16775.6 17082.8 20102.4 22054.7 20110.6 18219.9 20011.1 20136.6 18379.9 19955.5 18541.2 16977.7 18335.4 18541.9 10507.4 10842.3 10505 10234.5 10484.1 10535.7 10271.9 9841.09 10024.9 10473.2 10245.7 10049.9 11230 11259.3 11784.3 11258.2 11236.3 10838 11684.2 11200.8 11808.5 12462 12312.2 11648.8 12422.7 11692.8 11800.3 12438 13318.9 12336.7 13373.4 13436.9 12259.3 13399.8 14772.1 15507.7 13507.7 13307.7 14705.1 15466.5 18881.8 17441.8 18958.9 23702.2 17416.8 16831.8 18735.4 15623.3 14638.5 16787.1 15676 10874.3 10469.5 10780.2 11248.2 10855.5 10791.9 24643.4 23360.1 29896.9 23468.3 24491.1 18604.4 22301.1 24388 22019.3 22191.4 22066.5 19956.4 22057.6 25288.9 24664.5 25163.1 30126.6 28392.2 24544.4 25496.9 28012.2 28151.4 30474.3 33251.8 30036 38713.9 33624 48716.6 38675.8 52535.7 39437.4 39673.6 47720.2 39542 39381.6 33292.5 48190.3 53227.1 64263.9 14792 15721.5 14896.5 13791.9 14775.1 14898.3 14827.3 15800 16037.4 15816.7 16980.9 16044 17077.1 17290.1 15936.9 17301 17090.1 18420.5 21870 20153.2 20134 20082.5 20161.7 18412.3 20027.8 18692.7 18537.9 18683 17168.8 18527.1 10276.6 10502.9 10010.7 10481.7 10293.9 10771.5 11677.9 11262.1 11073 11802.4 11254.7 11693.5 11262.1 10772.3 11073.2 12364.3 11806.9 11683.9 12387.3 12443.1 11780.4 12459.9 12377.9 13137.7 13325 12424.1 13161 14193 13372.5 13121.8 13329.5 14221.4 14677 16675.6 14748.9 15688.1 14776 14140.1 15658.9 18941.5 16636.3 19565.4 22950.1 18962.8 19578.3 16854.9 17595.2 19368.2 17581.6 16830.2 15563.1 10782.2 10633.9 11071.2 10260.4 10623.8 10795.9 23040.4 28408.2 29994 23014.3 23214.1 19352.5 23497.1 22892.2 27748.2 30389.7 28075.5 36434.5 21864.7 24508.9 24106.4 24625.4 26758.6 24040.5 27010.8 24381.1 28111 20015.2 21993.5 21934.2 21915.2 22050 23914.4 31002.1 28004.5 33293 26870.8 28315.5 30696 30765.7 33606.6 35978.5 33282.1 39320.7 36340.6 55950.2 47891.8 64283.8 48776 54673.3 43332.6 39421.6 47837.3 43861.2 39843.8 43173.8 35992 78734.9 54892.3 65403.5 20149.2 21797.1 20237.9 18546.2 20138.9 20234.2 11099.5 11627.9 11105.6 11688.2 11626.3 12281.9 11611.7 11691.8 11058.5 12397.4 11646.5 12310.9 10600.7 11088.4 11107.7 12372.2 12892.8 13141.2 12881.1 12399.1 12318.7 13712.2 14156.4 13165.4 12881.2 13702.3 13175.4 14229.8 13650.7 14878.3 14225 14887.3 15576.1 14791.9 16334 15687.8 16346.9 17435.6 15706 17431.5 19949 19562.2 19915.4 22633.8 19690.2 19715.1 17644.5 18078.1 17579.6 16226.1 18082.4 26529.1 32912 28422.7 27850.4 33658.2 36481.4 22673.2 26782 27940.6 22664.2 22831.2 19729.5 23082.2 22556.3 26272.8 33211.8 43911.6 36916.5 26021.7 23805.4 24084.3 23836.4 21782.3 24024.6 26853.9 26188.9 23906.2 26750.5 30765.1 29312.6 26106.5 26973.1 29099.1 21906 21958.6 20089.4 21918.1 23707.4 21952.6 33555.1 30703.8 36014.7 30972.2 33275.3 29156.3 43162.7 39375.8 36006.1 38967.3 33295.2 36329.6 60539.2 54751.4 78609.4 43225.4 54583.7 47802.8 55599.4 59773.2 47067.5 38960.2 43704.9 47147.5 77674.9 81997.3 100336 77673.2 59313.8 81864.3 11547.4 12275.4 12337 13043.3 12934.5 12277.1 12287 12998.6 12328.2 13652 12935.6 13055.8 14103.2 13740.2 12997.8 13748.3 14116.7 14792.5 15435.3 16224.2 14890.6 14025 15419.4 14879.2 16371.4 16803.6 17920.7 15343.6 16796.6 16333 20103.8 19878.4 17929.6 20065.6 22335.6 20004.1 18371.8 19885 18117.9 16688.1 18378.9 18052.7 26436.6 22357.5 25571.3 30698.5 33049.3 26331 30071.1 26803.4 25370.1 33100.4 39762.2 43916.1 33793.1 30230.8 38711.6 22677.1 22253.4 25176.2 22495.2 19895.5 22335.3 44478.3 39039.5 52468.8 23696.1 26105.8 25796.3 26166.3 28131.3 25752.4 28245.9 26017.1 29152.4 21815.1 23806.7 23873.2 23823.7 25689.6 23855.3 33302.2 31589.4 29095.2 31414.8 28137.1 29279.4 33280 38942.7 36019.7 31406.9 33511.7 35784.1 35744.6 39254.7 41659.2 41922.9 38963.8 47020.4 59450.6 50029.7 47112.4 60979.2 49383.8 60098.9 76017.8 61117 59897.7 49808.8 41499.2 47469.2 97857.1 76419.3 101321 78097.1 94617.9 74838.5 60183.5 77071.6 75016.8 97164.9 102323 131698 12214.4 13071.7 13069.4 13079.4 14011.9 13073.5 14750.6 14115.8 13866.8 14099.5 14764.7 15344.5 14100 12999.1 13857.9 14739.9 15809.2 15416.4 15817.8 16681.1 15447.1 18226.9 16823.3 17099 16787 15734.4 17094.4 22072 20118 20125.4 20026.4 18232.9 20151.5 18393.1 18554.2 19970.2 18555 18348.5 16989.3 25310.2 22074.9 24684.1 28035.7 25518.4 24563.9 28416 30153.5 25184.3 38749.7 30062.9 33653.5 30501.5 28174.9 33280.9 39417 39578.5 33321.6 38711.6 48761.4 52585.1 47764.1 39710.4 39472.8 22318.6 22035.8 24407.4 22208.8 19971.1 22083.1 48234.7 64323.9 53277.2 25778.2 26010.7 23736.9 25799 27476 25989.8 28172.6 27527.8 25697.3 28157.1 31417.2 30299.8 27516.2 28238.8 30221.6 31396.7 35771.3 33905.5 31551.3 33728.2 30151.6 35982.9 38038.9 33732.8 38188.1 35806.4 41555.6 43604.2 37921.7 41854.3 49531.6 43694.9 41713.4 50002.2 60312.6 51082.4 43281.3 49989.7 51056.8 61038.6 60859.5 50435.6 60784.8 61476.2 73480.6 116107 88830.2 98045.9 120552 95309.4 133158 95825.8 89862.9 73548.6 87465.6 72727.8 75248.8 73018.8 59841.3 74427.4 172422 119350 134738 15731.7 14801.2 14905.9 14784.3 13800.1 14907.8 16048.1 15810.3 14836.7 15827 16054.6 16992.4 17312.9 18433.4 17101.7 15947.5 17302.1 17088.7 20148.9 20167.7 21886.5 18425.3 20176.3 20097.3 18540.1 17180.6 18696.2 20042.3 18551 18705.9 21881.2 24124.8 24528.4 27032.4 28134.6 24400.4 24058.8 26780 24645 28028.1 31028 33322.1 28339.2 26892.2 30721.6 30791.3 36009.6 33636 36372 39355.9 33311.3 39879.5 36023.1 43212.2 47881.3 39457 43900.2 54723.2 48820.8 43371.1 47935.8 56001.2 64343.9 23932.7 22066.7 21931.3 22010.1 20029.7 21950.4 65464.6 54942.5 78808.4 25879.4 27602.3 28467.3 28405.2 27645.6 30002 33754.2 33072.8 30092.6 30786.9 28307.6 30171.8 32916 30713.8 30308.5 35980.6 32953.1 33920.7 37972.2 36101.2 33777.7 38181.7 39772.9 35955.1 43382.7 39822.1 38121.5 43703 44633.2 39590.5 44619.4 43773.4 50532.8 59864.8 51115.8 51325.2 51170.3 44202 51053.5 71569.6 59604.1 61076.5 60625.9 59662.5 50436.5 117032 89315.7 88051 87497.1 119700 114700 115111 121475 155430 114487 174558 162650 89185.6 71580.6 88101.9 72974.1 87878.8 70667.8 58617 72597.5 70520.8 176707 233361 162044 20163.8 20252.5 21813.2 20248.9 20153.5 18559.3 24102.7 23823.2 26041.7 23854.3 24042.9 21798.4 26875.3 23924.5 26209.1 26771.8 29335.9 30790.7 29122.3 26994.6 26126.5 30998 29179.5 33302.8 36045.8 30729.3 33582.8 36037.2 39409.5 43201.1 39000.7 36360.9 33322.7 43743.7 38993.5 47189 54633.5 43263.8 47844.8 59827.1 55650 47109 54801.3 60593.6 78683 21968.7 23725.1 21934.3 20103.9 21974.8 21922.1 82073.8 77745.4 100430 59367.1 77743.9 81940.3 30544 33009.9 33316 33090.3 35386.9 33222.6 35996.4 35532.6 32932.9 39658.3 37744.5 36060.5 37670.2 35449.2 36136.2 37698.3 39855.6 40631.5 39950.6 44259.8 40606.7 44682.2 44847.2 50473.4 44617 44749.4 40404.2 44271.6 51020.4 50351.3 51363.3 58613.3 50267.3 59414.5 57354 49557.9 59812.7 69142.1 57407 90501.1 110477 85380.8 69112.2 89685.8 84841.4 110703 159889 144073 104185 114801 138840 113435 103225 82999.6 236484 209772 155124 163103 200340 145334 66191.2 70805.5 82935.6 56424.9 70313.7 65947.2 210096 238883 319439 23824.5 21831.2 23891 23713.8 25815.9 26125.9 25709 23841.5 23873.1 28267.7 29175.6 26037.2 25771.9 28153 26186.5 29118.4 31614.6 33329.7 31439.8 29302.7 28158.8 38975.9 33307.5 36049.3 33539.4 31431.8 35813.5 38997.2 41958.4 47061.8 41694.5 39288.2 35773.9 50073.1 59504.1 47153.9 41534.3 49852.1 47510.9 60152.9 49426.6 61033.1 76086.7 59951.6 61170.9 75083.3 77141.6 60236.5 76488.6 97945.9 101415 94703.3 78168.1 74904.8 97252.7 131820 102420 35437.7 36165.4 33162.1 37741.3 38044.5 35418.2 37861.1 36003.1 35572.3 37942.8 37894.7 40365.8 40911.4 37872 40551.1 44285 40781.5 40787.9 44021.6 44937.4 49573.1 40617 44617.4 44300.3 48991.8 43485.8 50047.7 56393.3 48986.2 50348.7 57372.2 64756.9 53627 48427.1 57020.6 53672.8 100514 76946.1 85141.7 76501.4 64821.7 84602.7 206542 174834 139069 169828 124368 143307 123062 100702 142509 88477.7 75218.6 102422 120588 89039.7 102684 259653 199702 325097 209880 248845 176590 75115.7 58911.3 65869.7 65500.6 58960.7 53002 261411 327215 435813 26030.3 25797.6 23754.6 25716.7 27548.7 28194.4 27496.9 25818.5 26009.3 30323.1 31442.2 28178.9 27537 30244.9 28260.6 31421.7 33932.4 35800.7 30174.7 33754.9 31576.3 38219.2 41590.7 35835.8 33759.4 38069.9 36012.5 49574.5 41748.8 43731.5 41889.7 37952.5 43640.7 51100.5 50033.1 43317.4 50045.7 51126.2 60365.8 60837.5 73545.6 61530.5 50478.7 60912.3 61092.4 72790.8 87542.2 75315.3 59893.1 73082.1 74493.2 89941.4 95912.2 73613.8 98133.8 88908 116208 133280 95395.3 120655 172575 134860 119453 35960.1 37910.5 38944.2 38101.6 40600.8 38673.4 38641.6 40574.3 41243.6 40877.8 43879.9 40798.3 43702 42691.1 40865.1 48347.2 44916.1 44175.4 44145 44801.5 42376.2 46779 44718.5 48619.1 46571.4 48904.7 52972.2 53489.4 58190.7 48060.4 46436.5 53102.1 48462.1 75853 64788.8 58228.5 64665.3 76155.7 87188.5 172721 198501 142917 254257 201335 170095 120816 173060 141816 100823 122001 140390 122166 100466 87319.7 70633.3 64103.8 87620.8 99619.9 70254.4 87873.1 286935 202395 255469 288796 248467 437392 58642.1 64049.6 48958.5 58154.7 49577.6 48045 408661 286331 446148 612744 403328 459428 27623.2 25898.9 28488.8 30025 27666.6 28426.6 33780.8 30115.7 33098.2 30810.1 30194.9 28328.9 30331.8 30736.9 32941.3 33804.5 36129.7 38003.1 36009 33947.5 32978.4 38152.6 39854.3 43419 35983.4 39805 38212.8 39622.4 44670 43739.6 44656.2 50576 43810.1 51213.4 51097.2 44238.4 51369.1 51158.9 59916.7 60678.5 50479 59713.4 71631.7 61129.4 59654.9 88179 71642.7 89261.9 70580.8 72660.4 58667 73037.2 70727.8 87954 117133 88128.3 89391.8 114794 119803 87571.7 115205 155558 121580 162786 174712 114587 176868 162176 233559 44426.3 44046 42798 44791 46471.2 43550.1 43349.9 46572.8 48091.8 46165.5 44110.8 43761.5 49204.4 41546.7 48142.5 42630.7 43671.2 47545.7 64360.1 70028 48952.2 63707.6 49884.8 49145.6 198514 287258 217655 199691 156082 140678 156506 198423 218478 156046 109983 140614 110324 99844.2 140862 74489.3 99844.3 109993 75429.6 70150.6 99374.6 70211.6 74936.4 47679 69228.1 49059.2 49493.5 284204 306829 218523 304246 284986 401314 48299.2 39240.3 42145.6 49178 49530.3 37784.4 456356 306055 401980 604205 457227 396865 447555 615624 744549 33035.3 30567 33341 35414.1 33115.7 33247.5 35559.8 36024.7 32958.2 37699.8 36164.7 35476.3 39690.3 36088.9 37774.1 39887.8 37727.9 40663.8 44296.3 39982.9 40639 44785.6 44653.9 40436.2 44718.5 50515.9 44884.2 51406.5 50309.1 58663.3 51063.4 44307.4 50393 49598.9 57402.2 59465.3 57455.4 69201.1 59863.6 85451.7 110568 90578 69171.1 84912.1 89762.1 70373.6 56472.4 66002.6 83005 70865.6 66247 113528 83068.8 103307 138948 114894 104268 144184 160019 110794 155252 209922 236681 163235 145443 200489 210246 319673 239075 48663.9 31682.7 49472.8 48202.3 33532.5 38787.7 305617 229447 218751 164524 156464 217542 231596 164012 216576 110349 154926 115589 155307 165149 114094 77317.5 75186.7 108747 75426.2 109920 115339 75143.3 76683.3 44570.9 48712.7 73586.4 46524.6 33169.8 46936.7 25113.4 48706.1 45921.1 22893.9 230183 302343 325914 306708 454974 320639 449523 461211 321827 459159 605993 458070 609509 443103 729075 830472 601064 742962 35464.8 33187 36192.4 37890.1 35599.5 36029.9 38073.7 37770.9 35445.4 37924.5 37971.9 40397.9 37901 40943 40583.4 40813 44320.9 40820.4 44973.8 44056.2 49614.2 44653.6 40648.3 44334.9 50089.3 43519.8 49031.6 56440.8 50390.3 49026.2 53717.4 57068.7 48466.5 64811.6 57420.3 53671.9 85212.3 77009.7 100595 76564.5 84673.3 64876.4 59010.3 65556.1 53046.1 75178 65925.1 58961.3 89110.8 120678 102766 75280.9 88548 102504 123153 142618 100782 143416 124460 169947 139176 174954 206692 259819 325331 199854 176706 248999 210035 327465 261571 436097 167580 229529 245886 244983 231729 324807 165448 229592 168895 162598 114209 115717 111358 164069 169134 77082.4 112980 73189.3 115447 113367 69766.5 74837.8 41199.5 46065 38634.8 77273 71816.5 43963.4 13633.9 24854 46273.9 40078.8 11169.9 356457 245097 324051 459365 356107 326097 664102 496479 457751 494825 357019 460743 609263 653810 458384 611314 809279 763372 661560 607964 777283 804936 811747 778094 38973 37939.6 35986.9 40632.1 38130.7 38702 40909.3 40828.2 43914.3 41273.9 40605.7 38670.1 44836.1 44179.7 42407.1 44210 44950.9 48386.5 43736.3 40895 42722.3 46608.5 53016.4 48944.5 44753 46816.1 48658.8 48100.2 58239.9 53533.9 46473.3 48501.7 53146.6 87258.2 76218.6 64720.5 75916.2 58277.8 64843.3 58691.6 49001.1 64103.9 58204.3 48084.4 49619.9 70692.2 87691.4 64158.2 100542 122258 87389.5 70314.3 99696.1 87943.1 120906 141912 173178 100900 140487 122092 201441 254399 170215 143012 198611 172838 437658 248627 288829 255607 202493 287006 408635 446416 286343 612967 459660 403318 168501 172366 104593 173129 169011 243898 112986 166356 107484 170364 245284 269343 245546 356820 270749 109309 53061.9 72613.4 47770.7 113579 106111 32235.8 39991.6 70202.7 46374.6 30112.9 74422.4 13412.9 38195.1 2744.13 40890 30007.4 3691.44 355971 499462 418661 271647 356474 417812 623206 493586 672643 631592 666072 852734 906127 670199 779975 663479 914146 858771 495702 619836 426250 808260 905394 782722 918158 920126 769933 724630 946088 773359 44078.2 44460.6 42829.2 43582.1 46508.1 44825.6 46202.3 43793.4 44143.5 48131.3 46609.7 43382.3 48181.9 41579.2 49246.6 42663.5 47585.1 43703.5 49187.8 49929.6 63762.2 48997.4 70087 64414.4 48341.3 42177.8 39272.9 49575.1 49220.1 37816.7 70270.2 47726.5 74999.4 69287.3 49538.4 49106.2 99451.8 70209.7 75492 99920.7 110404 140960 110075 99920.2 74553 199795 140776 156171 140711 110064 156138 218530 198529 156589 198629 217696 287306 304138 401229 285058 218541 306730 284259 305917 455841 401914 456580 604404 396863 744650 615869 446950 169568 172281 266082 169985 102568 106090 98231.5 173969 166396 39764.9 49473.4 103573 102999 38636.7 105955 270057 422096 309141 160466 270741 305523 48391.1 41564.5 23122 49897.6 38879.6 43790.6 28873.8 47030.4 20881.7 2411.19 28948 21446.3 420076 521837 313164 632700 523414 420516 782343 623038 865150 624750 779478 540238 1.00995e+06 796715 861450 916085 1.05912e+06 864747 1.06663e+06 1.0165e+06 856706 1.06811e+06 910206 1.07123e+06 919497 925599 1.06558e+06 908609 995367 1.08357e+06 991068 928179 759213 698528 1.03579e+06 706141 48711.2 49517.4 31714.8 33565 48246.9 38819.7 46983.5 33201.4 25146 45970.1 48752.6 22926.1 48760 46572.6 73649.4 44619.5 76749.6 75205.3 77382.1 108830 75249.8 115422 110001 75492.6 110431 115669 155020 164579 217580 156559 114173 165209 155402 218803 229348 305476 164053 231498 216626 454389 306610 320146 302233 230039 325388 459645 449031 321249 456587 603699 458468 607160 729216 442441 829840 742707 599359 132137 165153 298288 43777.1 173787 106756 100399 160886 48997.9 40081.1 105731 38718.5 37771.3 42196.9 67193.8 43826.2 36218.4 65953.2 533284 365073 308754 362468 115745 307605 381084 524492 656062 529268 801429 651381 784338 1.02438e+06 928915 784582 928787 686498 1.02033e+06 1.06939e+06 1.1555e+06 1.08907e+06 1.01334e+06 1.16231e+06 942808 1.02213e+06 1.07601e+06 1.06203e+06 1.17309e+06 1.16562e+06 1.16902e+06 1.06715e+06 1.07626e+06 1.00255e+06 1.1183e+06 1.07528e+06 1.12159e+06 1.17835e+06 1.06722e+06 984810 1.01538e+06 1.13095e+06 1.00433e+06 759926 1.00911e+06 727720 775632 949921 1.00337e+06 774803 932037 44011.4 24885.5 13667.5 46114 41246 74903.6 40127.7 46321.5 11203.3 73255 113065 77148.9 38681.5 71885.3 77337.7 115530 69833.4 113442 162659 115800 114280 169113 164136 111429 165507 168874 229471 324232 231621 244636 229436 167541 245530 355306 323549 244690 354972 457758 325556 493999 659342 456198 492315 459251 355789 456826 649359 606924 657024 771716 605225 758038 808916 609189 811118 804829 775288 102819 103972 93340.9 38767 94196.9 81811.8 108500 151000 128081 360992 143630 113504 71823.3 45293.5 88860.3 419101 379417 677297 366925 430521 131562 777341 445736 654042 962604 756148 673840 826697 945409 913362 931469 1.08734e+06 931125 1.1807e+06 1.20347e+06 1.16062e+06 1.14039e+06 1.08258e+06 1.17371e+06 1.20657e+06 1.15879e+06 1.15861e+06 910296 1.10325e+06 939271 1.07752e+06 1.14666e+06 969610 1.17278e+06 1.1276e+06 1.16686e+06 1.21375e+06 1.17102e+06 1.16765e+06 1.02474e+06 1.06167e+06 1.11982e+06 1.1187e+06 1.05974e+06 1.17369e+06 1.06938e+06 1.01639e+06 904157 808777 778689 903738 763343 908329 915661 907686 1.05643e+06 919379 38242 13445.3 2724.32 32274 70269.9 40040.4 30050 40936.3 3656.68 74489.4 30148.4 46434.4 72682.2 53117.6 109387 166334 113061 107533 113658 47822.8 106165 168988 172998 243525 172240 168487 104647 269972 355600 245184 170237 268592 244933 496849 354823 416586 355320 270770 415754 493198 423959 615566 667854 491114 618888 658368 850872 903214 845263 661210 627131 773995 665199 895210 139838 178397 111222 155632 394533 43637.9 481538 863489 223798 449819 182583 88787 344150 825883 524758 796913 945146 629684 978929 516503 433696 554391 895771 948131 1.15511e+06 1.20429e+06 1.17641e+06 1.20608e+06 1.15435e+06 1.15763e+06 1.14315e+06 1.22302e+06 1.14145e+06 1.1718e+06 940102 948632 968465 1.14332e+06 1.14243e+06 629292 557410 964231 943962 674469 936552 1.05295e+06 1.16085e+06 1.16782e+06 1.06718e+06 1.05632e+06 1.16555e+06 1.05772e+06 1.06188e+06 899025 856621 1.04998e+06 904920 21403.6 28990.4 2385.95 47079.9 28912.9 20835 49528.4 39813.7 103630 48446.8 23079 41508.3 38937.6 49951.4 43737.3 169867 106147 102607 106014 38692.9 103045 173846 98290.7 166173 265337 172167 169319 304121 269969 160300 269288 307654 419859 418384 519879 628168 417919 311439 518346 536333 773838 620280 776516 857524 618666 1.00978e+06 1.05706e+06 848996 1.00357e+06 853745 790708 1.06015e+06 1.01335e+06 1.15125e+06 1.15737e+06 1.00697e+06 1.086e+06 1.13953e+06 1.16935e+06 1.07908e+06 968542 1.14514e+06 1.07463e+06 940546 1.17089e+06 946716 950645 632858 631294 944070 934786 674847 632965 950553 631247 36276.2 43778 65872.8 42331 37824.3 67129.2 40137.9 38836.5 105771 100454 49127.3 160736 131795 296871 165031 43958.7 107068 173581 529422 307221 362382 306081 115402 359821 651068 520876 377765 646510 795508 525589 778782 681248 924305 1.01778e+06 778594 924338 1.07305e+06 1.0158e+06 938322 930380 1.08401e+06 927217 938036 1.10059e+06 908719 553564 946139 894495 628943 962369 557013 88894.2 45518.8 71773.4 94710.4 38870.2 81599 113584 142084 358111 103098 103913 93458.7 124793 149059 108633 414566 671810 376188 129664 425228 364084 668828 752580 957980 440106 773781 648975 823905 912638 941199 516599 978261 432584 944122 793655 632894 389237 153549 40002.6 175637 137059 109887 180742 444869 90750.2 859485 476467 222399 822937 344207 524157
