# vtk DataFile Version 2.0
Exported by getfem++
ASCII
DATASET UNSTRUCTURED_GRID
POINTS 3042 float
 -9.62185 3.49261 0 -9.58525 4.44814 0 -10.4705 4.25902 0
 -9.58525 4.44814 0 -9.62185 3.49261 0 -8.63076 4.13036 0
 -9.62185 3.49261 0 -8.83045 2.87469 0 -8.63076 4.13036 0
 -9.58525 4.44814 0 -10.1123 5.16797 0 -10.4705 4.25902 0
 -9.08233 5.1954 0 -10.1123 5.16797 0 -9.58525 4.44814 0
 -9.08233 5.1954 0 -9.58525 4.44814 0 -8.63076 4.13036 0
 -10.1123 5.16797 0 -11.2128 5.03645 0 -10.4705 4.25902 0
 -7.48921 4.32518 0 -8.02684 5.18994 0 -8.63076 4.13036 0
 -8.02684 5.18994 0 -9.08233 5.1954 0 -8.63076 4.13036 0
 -7.79264 3.34111 0 -7.48921 4.32518 0 -8.63076 4.13036 0
 -8.83045 2.87469 0 -7.79264 3.34111 0 -8.63076 4.13036 0
 -7.79264 3.34111 0 -8.83045 2.87469 0 -7.88645 2.24054 0
 -10.1123 5.16797 0 -10.7131 5.98116 0 -11.2128 5.03645 0
 -10.1123 5.16797 0 -9.61396 6.06059 0 -10.7131 5.98116 0
 -9.08233 5.1954 0 -9.61396 6.06059 0 -10.1123 5.16797 0
 -9.08233 5.1954 0 -8.02684 5.18994 0 -8.53784 6.09949 0
 -9.61396 6.06059 0 -9.08233 5.1954 0 -8.53784 6.09949 0
 -11.2128 5.03645 0 -10.7131 5.98116 0 -11.8887 5.85354 0
 -6.97765 5.21733 0 -8.02684 5.18994 0 -7.48921 4.32518 0
 -6.97762 3.65981 0 -6.52118 4.36297 0 -7.48921 4.32518 0
 -6.52118 4.36297 0 -6.97765 5.21733 0 -7.48921 4.32518 0
 -7.79264 3.34111 0 -6.97762 3.65981 0 -7.48921 4.32518 0
 -8.53784 6.09949 0 -8.02684 5.18994 0 -7.46476 6.12002 0
 -8.02684 5.18994 0 -6.97765 5.21733 0 -7.46476 6.12002 0
 -7.79264 3.34111 0 -6.92339 2.796 0 -6.97762 3.65981 0
 -6.92339 2.796 0 -7.79264 3.34111 0 -7.88645 2.24054 0
 -6.92339 2.796 0 -7.88645 2.24054 0 -6.89648 1.67939 0
 -10.1725 6.92411 0 -11.3102 6.83419 0 -10.7131 5.98116 0
 -9.61396 6.06059 0 -10.1725 6.92411 0 -10.7131 5.98116 0
 -10.7131 5.98116 0 -11.3102 6.83419 0 -11.8887 5.85354 0
 -10.1725 6.92411 0 -9.61396 6.06059 0 -9.06516 6.98756 0
 -9.06516 6.98756 0 -9.61396 6.06059 0 -8.53784 6.09949 0
 -7.96911 7.02803 0 -8.53784 6.09949 0 -7.46476 6.12002 0
 -7.96911 7.02803 0 -9.06516 6.98756 0 -8.53784 6.09949 0
 -11.8887 5.85354 0 -11.3102 6.83419 0 -12.5042 6.71474 0
 -6.97765 5.21733 0 -6.40611 6.11642 0 -7.46476 6.12002 0
 -6.40611 6.11642 0 -6.97765 5.21733 0 -5.96818 5.19131 0
 -6.97765 5.21733 0 -6.52118 4.36297 0 -5.96818 5.19131 0
 -6.52118 4.36297 0 -6.97762 3.65981 0 -6.16032 3.47966 0
 -6.97762 3.65981 0 -6.92339 2.796 0 -6.16032 3.47966 0
 -5.56761 4.28876 0 -6.52118 4.36297 0 -6.16032 3.47966 0
 -6.52118 4.36297 0 -5.56761 4.28876 0 -5.96818 5.19131 0
 -6.88246 7.0475 0 -7.96911 7.02803 0 -7.46476 6.12002 0
 -6.40611 6.11642 0 -6.88246 7.0475 0 -7.46476 6.12002 0
 -5.84826 2.39577 0 -6.92339 2.796 0 -6.89648 1.67939 0
 -6.92339 2.796 0 -5.84826 2.39577 0 -6.16032 3.47966 0
 -5.98196 1.24441 0 -5.84826 2.39577 0 -6.89648 1.67939 0
 -10.1725 6.92411 0 -10.7339 7.80088 0 -11.3102 6.83419 0
 -9.60975 7.87077 0 -10.1725 6.92411 0 -9.06516 6.98756 0
 -10.1725 6.92411 0 -9.60975 7.87077 0 -10.7339 7.80088 0
 -11.3102 6.83419 0 -11.8787 7.71891 0 -12.5042 6.71474 0
 -11.3102 6.83419 0 -10.7339 7.80088 0 -11.8787 7.71891 0
 -8.49356 7.92784 0 -9.60975 7.87077 0 -9.06516 6.98756 0
 -8.49356 7.92784 0 -9.06516 6.98756 0 -7.96911 7.02803 0
 -7.38032 7.96917 0 -8.49356 7.92784 0 -7.96911 7.02803 0
 -7.38032 7.96917 0 -7.96911 7.02803 0 -6.88246 7.0475 0
 -11.8787 7.71891 0 -13.0594 7.62078 0 -12.5042 6.71474 0
 -6.88246 7.0475 0 -6.40611 6.11642 0 -5.80631 7.04112 0
 -6.40611 6.11642 0 -5.34644 6.06784 0 -5.80631 7.04112 0
 -5.34644 6.06784 0 -6.40611 6.11642 0 -5.96818 5.19131 0
 -4.99229 5.10223 0 -5.34644 6.06784 0 -5.96818 5.19131 0
 -5.56761 4.28876 0 -4.99229 5.10223 0 -5.96818 5.19131 0
 -5.16723 3.36939 0 -5.56761 4.28876 0 -6.16032 3.47966 0
 -5.84826 2.39577 0 -5.16723 3.36939 0 -6.16032 3.47966 0
 -5.56761 4.28876 0 -5.16723 3.36939 0 -4.60869 4.21173 0
 -4.99229 5.10223 0 -5.56761 4.28876 0 -4.60869 4.21173 0
 -6.281 7.99264 0 -6.88246 7.0475 0 -5.80631 7.04112 0
 -6.281 7.99264 0 -7.38032 7.96917 0 -6.88246 7.0475 0
 -5.16723 3.36939 0 -5.84826 2.39577 0 -4.70715 2.45945 0
 -5.84826 2.39577 0 -5.14811 1.69431 0 -4.70715 2.45945 0
 -5.98196 1.24441 0 -5.14811 1.69431 0 -5.84826 2.39577 0
 -5.98196 1.24441 0 -4.92692 0.832238 0 -5.14811 1.69431 0
 -10.7339 7.80088 0 -9.60975 7.87077 0 -10.163 8.75752 0
 -10.7339 7.80088 0 -11.2835 8.69324 0 -11.8787 7.71891 0
 -11.2835 8.69324 0 -10.7339 7.80088 0 -10.163 8.75752 0
 -9.60975 7.87077 0 -8.49356 7.92784 0 -9.04007 8.82122 0
 -9.60975 7.87077 0 -9.04007 8.82122 0 -10.163 8.75752 0
 -11.8787 7.71891 0 -12.411 8.63076 0 -13.0594 7.62078 0
 -11.8787 7.71891 0 -11.2835 8.69324 0 -12.411 8.63076 0
 -8.49356 7.92784 0 -7.38032 7.96917 0 -7.90996 8.87766 0
 -9.04007 8.82122 0 -8.49356 7.92784 0 -7.90996 8.87766 0
 -7.38032 7.96917 0 -6.281 7.99264 0 -6.75459 8.93219 0
 -7.90996 8.87766 0 -7.38032 7.96917 0 -6.75459 8.93219 0
 -13.0594 7.62078 0 -12.411 8.63076 0 -13.552 8.57006 0
 -4.5938 7.11835 0 -5.30773 7.91266 0 -5.80631 7.04112 0
 -5.34644 6.06784 0 -4.5938 7.11835 0 -5.80631 7.04112 0
 -5.30773 7.91266 0 -6.281 7.99264 0 -5.80631 7.04112 0
 -4.5938 7.11835 0 -5.34644 6.06784 0 -4.28341 5.88409 0
 -5.34644 6.06784 0 -4.99229 5.10223 0 -4.28341 5.88409 0
 -4.99229 5.10223 0 -4.14111 4.9571 0 -4.28341 5.88409 0
 -4.14111 4.9571 0 -4.99229 5.10223 0 -4.60869 4.21173 0
 -5.16723 3.36939 0 -4.15794 3.32138 0 -4.60869 4.21173 0
 -4.15794 3.32138 0 -5.16723 3.36939 0 -4.70715 2.45945 0
 -4.15794 3.32138 0 -3.62776 4.21506 0 -4.60869 4.21173 0
 -3.62776 4.21506 0 -4.14111 4.9571 0 -4.60869 4.21173 0
 -6.281 7.99264 0 -5.30773 7.91266 0 -5.40081 9.0982 0
 -6.75459 8.93219 0 -6.281 7.99264 0 -5.40081 9.0982 0
 -3.70876 2.37764 0 -4.15794 3.32138 0 -4.70715 2.45945 0
 -4.27718 1.54496 0 -3.70876 2.37764 0 -4.70715 2.45945 0
 -5.14811 1.69431 0 -4.27718 1.54496 0 -4.70715 2.45945 0
 -5.14811 1.69431 0 -4.92692 0.832238 0 -4.27718 1.54496 0
 -4.92692 0.832238 0 -3.90279 0.516622 0 -4.27718 1.54496 0
 -9.60215 9.71543 0 -10.714 9.64965 0 -10.163 8.75752 0
 -9.04007 8.82122 0 -9.60215 9.71543 0 -10.163 8.75752 0
 -10.714 9.64965 0 -11.2835 8.69324 0 -10.163 8.75752 0
 -10.714 9.64965 0 -11.8147 9.59564 0 -11.2835 8.69324 0
 -11.2835 8.69324 0 -11.8147 9.59564 0 -12.411 8.63076 0
 -8.47017 9.78122 0 -9.60215 9.71543 0 -9.04007 8.82122 0
 -8.47017 9.78122 0 -9.04007 8.82122 0 -7.90996 8.87766 0
 -12.411 8.63076 0 -12.9039 9.55997 0 -13.552 8.57006 0
 -11.8147 9.59564 0 -12.9039 9.55997 0 -12.411 8.63076 0
 -7.32453 9.82823 0 -8.47017 9.78122 0 -7.90996 8.87766 0
 -7.32453 9.82823 0 -7.90996 8.87766 0 -6.75459 8.93219 0
 -6.14682 9.87978 0 -6.75459 8.93219 0 -5.40081 9.0982 0
 -6.14682 9.87978 0 -7.32453 9.82823 0 -6.75459 8.93219 0
 -12.9039 9.55997 0 -13.9792 9.56117 0 -13.552 8.57006 0
 -4.5938 7.11835 0 -4.45646 8.35621 0 -5.30773 7.91266 0
 -4.5938 7.11835 0 -3.55474 7.83314 0 -4.45646 8.35621 0
 -3.41882 6.67352 0 -4.5938 7.11835 0 -4.28341 5.88409 0
 -3.41882 6.67352 0 -3.55474 7.83314 0 -4.5938 7.11835 0
 -5.30773 7.91266 0 -4.45646 8.35621 0 -5.40081 9.0982 0
 -4.14111 4.9571 0 -3.19313 5.35727 0 -4.28341 5.88409 0
 -3.19313 5.35727 0 -3.41882 6.67352 0 -4.28341 5.88409 0
 -3.19313 5.35727 0 -4.14111 4.9571 0 -3.62776 4.21506 0
 -3.62776 4.21506 0 -4.15794 3.32138 0 -3.14157 3.27651 0
 -4.15794 3.32138 0 -3.70876 2.37764 0 -3.14157 3.27651 0
 -2.58145 4.24481 0 -3.62776 4.21506 0 -3.14157 3.27651 0
 -2.58145 4.24481 0 -3.19313 5.35727 0 -3.62776 4.21506 0
 -3.70876 2.37764 0 -2.68712 2.28036 0 -3.14157 3.27651 0
 -3.28878 1.37728 0 -2.68712 2.28036 0 -3.70876 2.37764 0
 -4.27718 1.54496 0 -3.28878 1.37728 0 -3.70876 2.37764 0
 -4.27718 1.54496 0 -3.90279 0.516622 0 -3.28878 1.37728 0
 -3.90279 0.516622 0 -2.89141 0.281314 0 -3.28878 1.37728 0
 -9.60215 9.71543 0 -9.05723 10.6954 0 -10.1707 10.6007 0
 -9.05723 10.6954 0 -9.60215 9.71543 0 -8.47017 9.78122 0
 -10.714 9.64965 0 -9.60215 9.71543 0 -10.1707 10.6007 0
 -11.2554 10.5375 0 -10.714 9.64965 0 -10.1707 10.6007 0
 -10.714 9.64965 0 -11.2554 10.5375 0 -11.8147 9.59564 0
 -11.2554 10.5375 0 -12.3277 10.4957 0 -11.8147 9.59564 0
 -11.8147 9.59564 0 -12.3277 10.4957 0 -12.9039 9.55997 0
 -7.89961 10.755 0 -9.05723 10.6954 0 -8.47017 9.78122 0
 -7.89961 10.755 0 -8.47017 9.78122 0 -7.32453 9.82823 0
 -12.3277 10.4957 0 -13.3562 10.4806 0 -12.9039 9.55997 0
 -13.3562 10.4806 0 -13.9792 9.56117 0 -12.9039 9.55997 0
 -6.77308 10.7426 0 -7.89961 10.755 0 -7.32453 9.82823 0
 -6.77308 10.7426 0 -7.32453 9.82823 0 -6.14682 9.87978 0
 -13.9792 9.56117 0 -13.3562 10.4806 0 -14.3396 10.5981 0
 -3.55474 7.83314 0 -3.41882 6.67352 0 -2.58204 7.42814 0
 -3.41882 6.67352 0 -2.32519 6.34726 0 -2.58204 7.42814 0
 -3.41882 6.67352 0 -3.19313 5.35727 0 -2.32519 6.34726 0
 -3.19313 5.35727 0 -2.58145 4.24481 0 -1.95911 5.2445 0
 -2.32519 6.34726 0 -3.19313 5.35727 0 -1.95911 5.2445 0
 -2.09468 3.22398 0 -2.58145 4.24481 0 -3.14157 3.27651 0
 -2.68712 2.28036 0 -2.09468 3.22398 0 -3.14157 3.27651 0
 -2.58145 4.24481 0 -1.50453 4.19526 0 -1.95911 5.2445 0
 -2.09468 3.22398 0 -1.50453 4.19526 0 -2.58145 4.24481 0
 -2.68712 2.28036 0 -3.28878 1.37728 0 -2.26656 1.22901 0
 -1.6368 2.1875 0 -2.09468 3.22398 0 -2.68712 2.28036 0
 -1.6368 2.1875 0 -2.68712 2.28036 0 -2.26656 1.22901 0
 -3.28878 1.37728 0 -2.89141 0.281314 0 -2.26656 1.22901 0
 -2.26656 1.22901 0 -2.89141 0.281314 0 -1.8908 0.119648 0
 -9.05723 10.6954 0 -8.52026 11.8149 0 -9.67929 11.5384 0
 -8.52026 11.8149 0 -9.05723 10.6954 0 -7.89961 10.755 0
 -9.05723 10.6954 0 -9.67929 11.5384 0 -10.1707 10.6007 0
 -11.2554 10.5375 0 -10.1707 10.6007 0 -10.7224 11.4657 0
 -10.1707 10.6007 0 -9.67929 11.5384 0 -10.7224 11.4657 0
 -11.7841 11.4234 0 -11.2554 10.5375 0 -10.7224 11.4657 0
 -11.2554 10.5375 0 -11.7841 11.4234 0 -12.3277 10.4957 0
 -12.3277 10.4957 0 -11.7841 11.4234 0 -12.8426 11.3859 0
 -13.3562 10.4806 0 -12.3277 10.4957 0 -12.8426 11.3859 0
 -8.52026 11.8149 0 -7.89961 10.755 0 -7.27687 11.6763 0
 -7.27687 11.6763 0 -7.89961 10.755 0 -6.77308 10.7426 0
 -13.3562 10.4806 0 -12.8426 11.3859 0 -13.7532 11.2972 0
 -13.3562 10.4806 0 -13.7532 11.2972 0 -14.3396 10.5981 0
 -14.3396 10.5981 0 -13.7532 11.2972 0 -14.6364 11.7173 0
 -2.32519 6.34726 0 -1.57729 7.15703 0 -2.58204 7.42814 0
 -1.25984 6.16097 0 -2.32519 6.34726 0 -1.95911 5.2445 0
 -1.25984 6.16097 0 -1.57729 7.15703 0 -2.32519 6.34726 0
 -1.50453 4.19526 0 -0.898132 5.14478 0 -1.95911 5.2445 0
 -0.898132 5.14478 0 -1.25984 6.16097 0 -1.95911 5.2445 0
 -1.6368 2.1875 0 -1.03483 3.16859 0 -2.09468 3.22398 0
 -2.09468 3.22398 0 -1.03483 3.16859 0 -1.50453 4.19526 0
 -0.464135 4.14508 0 -0.898132 5.14478 0 -1.50453 4.19526 0
 -1.03483 3.16859 0 -0.464135 4.14508 0 -1.50453 4.19526 0
 -2.26656 1.22901 0 -1.8908 0.119648 0 -1.21044 1.10323 0
 -1.6368 2.1875 0 -2.26656 1.22901 0 -1.21044 1.10323 0
 -0.545542 2.11231 0 -1.6368 2.1875 0 -1.21044 1.10323 0
 -1.03483 3.16859 0 -1.6368 2.1875 0 -0.545542 2.11231 0
 -1.8908 0.119648 0 -0.917934 0.0281131 0 -1.21044 1.10323 0
 -8.52026 11.8149 0 -8.68156 12.9828 0 -9.35713 12.3745 0
 -8.68156 12.9828 0 -8.52026 11.8149 0 -7.65049 12.6612 0
 -8.52026 11.8149 0 -7.27687 11.6763 0 -7.65049 12.6612 0
 -9.67929 11.5384 0 -8.52026 11.8149 0 -9.35713 12.3745 0
 -10.2268 12.3521 0 -9.67929 11.5384 0 -9.35713 12.3745 0
 -9.67929 11.5384 0 -10.2268 12.3521 0 -10.7224 11.4657 0
 -11.2392 12.3383 0 -11.7841 11.4234 0 -10.7224 11.4657 0
 -10.2268 12.3521 0 -11.2392 12.3383 0 -10.7224 11.4657 0
 -12.8426 11.3859 0 -11.7841 11.4234 0 -12.3215 12.3345 0
 -11.7841 11.4234 0 -11.2392 12.3383 0 -12.3215 12.3345 0
 -13.5797 12.3161 0 -12.8426 11.3859 0 -12.3215 12.3345 0
 -13.7532 11.2972 0 -12.8426 11.3859 0 -13.5797 12.3161 0
 -13.7532 11.2972 0 -13.5797 12.3161 0 -14.6364 11.7173 0
 -13.5797 12.3161 0 -14.8247 12.7135 0 -14.6364 11.7173 0
 -1.57729 7.15703 0 -1.25984 6.16097 0 -0.526293 7.01733 0
 -1.25984 6.16097 0 -0.284716 6.03045 0 -0.526293 7.01733 0
 -0.898132 5.14478 0 -0.284716 6.03045 0 -1.25984 6.16097 0
 -0.284716 6.03045 0 -0.898132 5.14478 0 0.0775062 5.06596 0
 -0.898132 5.14478 0 -0.464135 4.14508 0 0.0775062 5.06596 0
 -0.464135 4.14508 0 -1.03483 3.16859 0 0.0265845 3.14136 0
 -1.03483 3.16859 0 -0.545542 2.11231 0 0.0265845 3.14136 0
 -0.464135 4.14508 0 0.552448 4.1334 0 0.0775062 5.06596 0
 0.552448 4.1334 0 -0.464135 4.14508 0 0.0265845 3.14136 0
 -0.917934 0.0281131 0 0.00489492 0.945543 0 -1.21044 1.10323 0
 0.00489492 0.945543 0 -0.545542 2.11231 0 -1.21044 1.10323 0
 -0.545542 2.11231 0 0.575992 2.11141 0 0.0265845 3.14136 0
 0.00489492 0.945543 0 0.575992 2.11141 0 -0.545542 2.11231 0
 0.00489492 0.945543 0 -0.917934 0.0281131 0 2.39065e-12 4.996e-16 0
 -8.68156 12.9828 0 -7.91528 13.8388 0 -9.00214 14.0035 0
 -8.68156 12.9828 0 -7.65049 12.6612 0 -7.91528 13.8388 0
 -9.67885 13.1708 0 -8.68156 12.9828 0 -9.00214 14.0035 0
 -8.68156 12.9828 0 -9.67885 13.1708 0 -9.35713 12.3745 0
 -9.67885 13.1708 0 -10.2268 12.3521 0 -9.35713 12.3745 0
 -11.2392 12.3383 0 -10.2268 12.3521 0 -10.6858 13.2152 0
 -10.2268 12.3521 0 -9.67885 13.1708 0 -10.6858 13.2152 0
 -11.2392 12.3383 0 -11.7325 13.2433 0 -12.3215 12.3345 0
 -11.7325 13.2433 0 -11.2392 12.3383 0 -10.6858 13.2152 0
 -12.8125 13.3035 0 -13.5797 12.3161 0 -12.3215 12.3345 0
 -11.7325 13.2433 0 -12.8125 13.3035 0 -12.3215 12.3345 0
 -12.8125 13.3035 0 -13.9015 13.4896 0 -13.5797 12.3161 0
 -13.5797 12.3161 0 -13.9015 13.4896 0 -14.8247 12.7135 0
 -13.9015 13.4896 0 -14.9529 13.8125 0 -14.8247 12.7135 0
 -0.284716 6.03045 0 0.526293 7.01733 0 -0.526293 7.01733 0
 0.552735 5.8385 0 -0.284716 6.03045 0 0.0775062 5.06596 0
 0.552735 5.8385 0 0.526293 7.01733 0 -0.284716 6.03045 0
 0.552448 4.1334 0 1.03072 5.08639 0 0.0775062 5.06596 0
 1.03072 5.08639 0 0.552735 5.8385 0 0.0775062 5.06596 0
 1.08286 3.16286 0 0.552448 4.1334 0 0.0265845 3.14136 0
 0.575992 2.11141 0 1.08286 3.16286 0 0.0265845 3.14136 0
 0.552448 4.1334 0 1.08286 3.16286 0 1.57142 4.1749 0
 1.03072 5.08639 0 0.552448 4.1334 0 1.57142 4.1749 0
 0.00489492 0.945543 0 1.22388 1.10209 0 0.575992 2.11141 0
 1.22388 1.10209 0 0.00489492 0.945543 0 0.917934 0.0281131 0
 0.917934 0.0281131 0 0.00489492 0.945543 0 2.39065e-12 4.996e-16 0
 0.575992 2.11141 0 1.66321 2.18454 0 1.08286 3.16286 0
 1.22388 1.10209 0 1.66321 2.18454 0 0.575992 2.11141 0
 -7.91528 13.8388 0 -8 15 0 -9.00214 14.0035 0
 -8 15 0 -9.49647 15 0 -9.00214 14.0035 0
 -10.1062 14.0811 0 -9.67885 13.1708 0 -9.00214 14.0035 0
 -9.49647 15 0 -10.1062 14.0811 0 -9.00214 14.0035 0
 -9.67885 13.1708 0 -10.1062 14.0811 0 -10.6858 13.2152 0
 -10.1062 14.0811 0 -11.1658 14.1146 0 -10.6858 13.2152 0
 -11.1658 14.1146 0 -11.7325 13.2433 0 -10.6858 13.2152 0
 -11.1658 14.1146 0 -12.2009 14.1529 0 -11.7325 13.2433 0
 -12.2009 14.1529 0 -12.8125 13.3035 0 -11.7325 13.2433 0
 -13.9015 13.4896 0 -12.8125 13.3035 0 -13.1805 14.2404 0
 -12.8125 13.3035 0 -12.2009 14.1529 0 -13.1805 14.2404 0
 -14.0989 14.5079 0 -13.9015 13.4896 0 -13.1805 14.2404 0
 -13.9015 13.4896 0 -14.0989 14.5079 0 -14.9529 13.8125 0
 -14.0989 14.5079 0 -15 15 0 -14.9529 13.8125 0
 1.373 6.09652 0 0.526293 7.01733 0 0.552735 5.8385 0
 0.526293 7.01733 0 1.373 6.09652 0 1.57729 7.15703 0
 1.03072 5.08639 0 1.373 6.09652 0 0.552735 5.8385 0
 1.373 6.09652 0 1.03072 5.08639 0 2.03167 5.21283 0
 2.03167 5.21283 0 1.03072 5.08639 0 1.57142 4.1749 0
 1.08286 3.16286 0 2.13024 3.21686 0 1.57142 4.1749 0
 1.66321 2.18454 0 2.13024 3.21686 0 1.08286 3.16286 0
 2.13024 3.21686 0 2.61949 4.23135 0 1.57142 4.1749 0
 2.61949 4.23135 0 2.03167 5.21283 0 1.57142 4.1749 0
 1.8908 0.119648 0 1.22388 1.10209 0 0.917934 0.0281131 0
 1.22388 1.10209 0 1.8908 0.119648 0 2.27856 1.22715 0
 1.66321 2.18454 0 1.22388 1.10209 0 2.27856 1.22715 0
 2.70718 2.2766 0 1.66321 2.18454 0 2.27856 1.22715 0
 1.66321 2.18454 0 2.70718 2.2766 0 2.13024 3.21686 0
 -9.00214 15.9965 0 -8 15 0 -7.91528 16.1612 0
 -8 15 0 -9.00214 15.9965 0 -9.49647 15 0
 -10.6173 15 0 -10.1062 14.0811 0 -9.49647 15 0
 -10.6173 15 0 -9.49647 15 0 -10.1062 15.9189 0
 -9.49647 15 0 -9.00214 15.9965 0 -10.1062 15.9189 0
 -10.6173 15 0 -11.1658 14.1146 0 -10.1062 14.0811 0
 -11.1658 14.1146 0 -10.6173 15 0 -11.6671 15 0
 -11.1658 14.1146 0 -11.6671 15 0 -12.2009 14.1529 0
 -12.2009 14.1529 0 -12.6428 15 0 -13.1805 14.2404 0
 -11.6671 15 0 -12.6428 15 0 -12.2009 14.1529 0
 -12.6428 15 0 -13.439 15 0 -13.1805 14.2404 0
 -13.439 15 0 -14.0989 14.5079 0 -13.1805 14.2404 0
 -14.0989 14.5079 0 -14.0989 15.4921 0 -15 15 0
 -13.439 15 0 -14.0989 15.4921 0 -14.0989 14.5079 0
 -15 15 0 -14.0989 15.4921 0 -14.9529 16.1875 0
 1.373 6.09652 0 2.36626 6.3298 0 1.57729 7.15703 0
 1.373 6.09652 0 2.03167 5.21283 0 2.36626 6.3298 0
 2.36626 6.3298 0 2.58204 7.42814 0 1.57729 7.15703 0
 2.61949 4.23135 0 3.21983 5.34485 0 2.03167 5.21283 0
 2.03167 5.21283 0 3.21983 5.34485 0 2.36626 6.3298 0
 3.16455 3.27059 0 2.61949 4.23135 0 2.13024 3.21686 0
 2.70718 2.2766 0 3.16455 3.27059 0 2.13024 3.21686 0
 3.21983 5.34485 0 2.61949 4.23135 0 3.64857 4.20784 0
 3.64857 4.20784 0 2.61949 4.23135 0 3.16455 3.27059 0
 1.8908 0.119648 0 2.89141 0.281314 0 2.27856 1.22715 0
 3.29799 1.37538 0 2.70718 2.2766 0 2.27856 1.22715 0
 2.89141 0.281314 0 3.29799 1.37538 0 2.27856 1.22715 0
 3.72236 2.3739 0 2.70718 2.2766 0 3.29799 1.37538 0
 2.70718 2.2766 0 3.72236 2.3739 0 3.16455 3.27059 0
 -9.00214 15.9965 0 -9.67885 16.8292 0 -10.1062 15.9189 0
 -8.68156 17.0172 0 -9.00214 15.9965 0 -7.91528 16.1612 0
 -9.00214 15.9965 0 -8.68156 17.0172 0 -9.67885 16.8292 0
 -7.65049 17.3388 0 -8.68156 17.0172 0 -7.91528 16.1612 0
 -11.6671 15 0 -10.6173 15 0 -11.1658 15.8854 0
 -11.1658 15.8854 0 -10.6173 15 0 -10.1062 15.9189 0
 -9.67885 16.8292 0 -10.6858 16.7848 0 -10.1062 15.9189 0
 -10.6858 16.7848 0 -11.1658 15.8854 0 -10.1062 15.9189 0
 -12.6428 15 0 -11.6671 15 0 -12.2009 15.8471 0
 -11.6671 15 0 -11.1658 15.8854 0 -12.2009 15.8471 0
 -12.6428 15 0 -13.1805 15.7596 0 -13.439 15 0
 -13.1805 15.7596 0 -12.6428 15 0 -12.2009 15.8471 0
 -13.1805 15.7596 0 -14.0989 15.4921 0 -13.439 15 0
 -14.0989 15.4921 0 -13.9015 16.5104 0 -14.9529 16.1875 0
 -14.0989 15.4921 0 -13.1805 15.7596 0 -13.9015 16.5104 0
 -13.9015 16.5104 0 -14.8247 17.2865 0 -14.9529 16.1875 0
 3.21983 5.34485 0 3.43273 6.66911 0 2.36626 6.3298 0
 3.43273 6.66911 0 2.58204 7.42814 0 2.36626 6.3298 0
 2.58204 7.42814 0 3.43273 6.66911 0 3.55474 7.83314 0
 3.21983 5.34485 0 3.64857 4.20784 0 4.1564 4.95006 0
 3.21983 5.34485 0 4.1564 4.95006 0 4.29491 5.87673 0
 3.43273 6.66911 0 3.21983 5.34485 0 4.29491 5.87673 0
 3.16455 3.27059 0 3.72236 2.3739 0 4.17224 3.3164 0
 3.64857 4.20784 0 3.16455 3.27059 0 4.17224 3.3164 0
 4.1564 4.95006 0 3.64857 4.20784 0 4.62126 4.20651 0
 4.62126 4.20651 0 3.64857 4.20784 0 4.17224 3.3164 0
 3.90279 0.516622 0 3.29799 1.37538 0 2.89141 0.281314 0
 3.72236 2.3739 0 3.29799 1.37538 0 4.28326 1.54343 0
 3.29799 1.37538 0 3.90279 0.516622 0 4.28326 1.54343 0
 4.71537 2.4561 0 3.72236 2.3739 0 4.28326 1.54343 0
 3.72236 2.3739 0 4.71537 2.4561 0 4.17224 3.3164 0
 -10.2268 17.6479 0 -10.6858 16.7848 0 -9.67885 16.8292 0
 -8.68156 17.0172 0 -9.35713 17.6255 0 -9.67885 16.8292 0
 -9.35713 17.6255 0 -10.2268 17.6479 0 -9.67885 16.8292 0
 -7.65049 17.3388 0 -8.52026 18.1852 0 -8.68156 17.0172 0
 -8.52026 18.1852 0 -9.35713 17.6255 0 -8.68156 17.0172 0
 -8.52026 18.1852 0 -7.65049 17.3388 0 -7.27687 18.3237 0
 -11.1658 15.8854 0 -10.6858 16.7848 0 -11.7325 16.7567 0
 -12.2009 15.8471 0 -11.1658 15.8854 0 -11.7325 16.7567 0
 -10.6858 16.7848 0 -11.2392 17.6617 0 -11.7325 16.7567 0
 -10.2268 17.6479 0 -11.2392 17.6617 0 -10.6858 16.7848 0
 -12.8125 16.6965 0 -12.2009 15.8471 0 -11.7325 16.7567 0
 -13.1805 15.7596 0 -12.2009 15.8471 0 -12.8125 16.6965 0
 -13.1805 15.7596 0 -12.8125 16.6965 0 -13.9015 16.5104 0
 -14.8247 17.2865 0 -13.9015 16.5104 0 -13.5797 17.6839 0
 -13.9015 16.5104 0 -12.8125 16.6965 0 -13.5797 17.6839 0
 -14.6364 18.2827 0 -14.8247 17.2865 0 -13.5797 17.6839 0
 3.55474 7.83314 0 3.43273 6.66911 0 4.59781 7.11559 0
 3.43273 6.66911 0 4.29491 5.87673 0 4.59781 7.11559 0
 4.45646 8.35621 0 3.55474 7.83314 0 4.59781 7.11559 0
 4.29491 5.87673 0 4.1564 4.95006 0 5.00214 5.09684 0
 4.1564 4.95006 0 4.62126 4.20651 0 5.00214 5.09684 0
 5.35242 6.06334 0 4.29491 5.87673 0 5.00214 5.09684 0
 4.29491 5.87673 0 5.35242 6.06334 0 4.59781 7.11559 0
 5.17575 3.36536 0 4.62126 4.20651 0 4.17224 3.3164 0
 4.71537 2.4561 0 5.17575 3.36536 0 4.17224 3.3164 0
 4.62126 4.20651 0 5.57488 4.28478 0 5.00214 5.09684 0
 5.57488 4.28478 0 4.62126 4.20651 0 5.17575 3.36536 0
 4.28326 1.54343 0 3.90279 0.516622 0 4.92692 0.832238 0
 5.15163 1.69272 0 4.28326 1.54343 0 4.92692 0.832238 0
 5.15163 1.69272 0 4.71537 2.4561 0 4.28326 1.54343 0
 5.15163 1.69272 0 5.85151 2.39384 0 4.71537 2.4561 0
 4.71537 2.4561 0 5.85151 2.39384 0 5.17575 3.36536 0
 -9.67929 18.4616 0 -10.7224 18.5343 0 -10.2268 17.6479 0
 -9.35713 17.6255 0 -9.67929 18.4616 0 -10.2268 17.6479 0
 -10.2268 17.6479 0 -10.7224 18.5343 0 -11.2392 17.6617 0
 -8.52026 18.1852 0 -9.67929 18.4616 0 -9.35713 17.6255 0
 -9.05723 19.3046 0 -9.67929 18.4616 0 -8.52026 18.1852 0
 -7.89961 19.245 0 -9.05723 19.3046 0 -8.52026 18.1852 0
 -7.89961 19.245 0 -8.52026 18.1852 0 -7.27687 18.3237 0
 -6.77308 19.2574 0 -7.89961 19.245 0 -7.27687 18.3237 0
 -11.2392 17.6617 0 -12.3215 17.6655 0 -11.7325 16.7567 0
 -12.3215 17.6655 0 -12.8125 16.6965 0 -11.7325 16.7567 0
 -11.2392 17.6617 0 -11.7841 18.5766 0 -12.3215 17.6655 0
 -10.7224 18.5343 0 -11.7841 18.5766 0 -11.2392 17.6617 0
 -12.8125 16.6965 0 -12.3215 17.6655 0 -13.5797 17.6839 0
 -13.7532 18.7028 0 -14.6364 18.2827 0 -13.5797 17.6839 0
 -12.3215 17.6655 0 -12.8426 18.6141 0 -13.5797 17.6839 0
 -12.8426 18.6141 0 -13.7532 18.7028 0 -13.5797 17.6839 0
 -14.6364 18.2827 0 -13.7532 18.7028 0 -14.3396 19.4019 0
 5.80874 7.03898 0 5.30894 7.91139 0 4.59781 7.11559 0
 5.30894 7.91139 0 4.45646 8.35621 0 4.59781 7.11559 0
 5.35242 6.06334 0 5.80874 7.03898 0 4.59781 7.11559 0
 4.45646 8.35621 0 5.30894 7.91139 0 5.40081 9.0982 0
 5.97337 5.18761 0 5.35242 6.06334 0 5.00214 5.09684 0
 5.57488 4.28478 0 5.97337 5.18761 0 5.00214 5.09684 0
 5.97337 5.18761 0 6.40897 6.11392 0 5.35242 6.06334 0
 5.35242 6.06334 0 6.40897 6.11392 0 5.80874 7.03898 0
 5.85151 2.39384 0 6.16432 3.47792 0 5.17575 3.36536 0
 6.16432 3.47792 0 5.57488 4.28478 0 5.17575 3.36536 0
 5.97337 5.18761 0 5.57488 4.28478 0 6.5243 4.36083 0
 5.57488 4.28478 0 6.16432 3.47792 0 6.5243 4.36083 0
 5.98196 1.24441 0 5.15163 1.69272 0 4.92692 0.832238 0
 5.85151 2.39384 0 5.15163 1.69272 0 5.98196 1.24441 0
 6.92479 2.79566 0 5.85151 2.39384 0 6.89648 1.67939 0
 5.85151 2.39384 0 5.98196 1.24441 0 6.89648 1.67939 0
 5.85151 2.39384 0 6.92479 2.79566 0 6.16432 3.47792 0
 -9.67929 18.4616 0 -9.05723 19.3046 0 -10.1707 19.3993 0
 -9.67929 18.4616 0 -10.1707 19.3993 0 -10.7224 18.5343 0
 -10.1707 19.3993 0 -11.2554 19.4625 0 -10.7224 18.5343 0
 -10.7224 18.5343 0 -11.2554 19.4625 0 -11.7841 18.5766 0
 -9.60215 20.2846 0 -9.05723 19.3046 0 -8.47017 20.2188 0
 -9.05723 19.3046 0 -9.60215 20.2846 0 -10.1707 19.3993 0
 -8.47017 20.2188 0 -9.05723 19.3046 0 -7.89961 19.245 0
 -7.32453 20.1718 0 -8.47017 20.2188 0 -7.89961 19.245 0
 -7.32453 20.1718 0 -7.89961 19.245 0 -6.77308 19.2574 0
 -7.32453 20.1718 0 -6.77308 19.2574 0 -6.14682 20.1202 0
 -11.7841 18.5766 0 -12.8426 18.6141 0 -12.3215 17.6655 0
 -11.2554 19.4625 0 -12.3277 19.5043 0 -11.7841 18.5766 0
 -11.7841 18.5766 0 -12.3277 19.5043 0 -12.8426 18.6141 0
 -13.7532 18.7028 0 -13.3562 19.5194 0 -14.3396 19.4019 0
 -12.8426 18.6141 0 -13.3562 19.5194 0 -13.7532 18.7028 0
 -12.8426 18.6141 0 -12.3277 19.5043 0 -13.3562 19.5194 0
 -14.3396 19.4019 0 -13.3562 19.5194 0 -13.9792 20.4388 0
 6.40897 6.11392 0 6.88363 7.04644 0 5.80874 7.03898 0
 6.88363 7.04644 0 6.28202 7.9918 0 5.80874 7.03898 0
 6.28202 7.9918 0 5.30894 7.91139 0 5.80874 7.03898 0
 5.30894 7.91139 0 6.28202 7.9918 0 5.40081 9.0982 0
 6.75483 8.93203 0 6.14682 9.87978 0 5.40081 9.0982 0
 6.28202 7.9918 0 6.75483 8.93203 0 5.40081 9.0982 0
 6.40897 6.11392 0 5.97337 5.18761 0 6.97963 5.21562 0
 6.97963 5.21562 0 5.97337 5.18761 0 6.5243 4.36083 0
 6.88363 7.04644 0 6.40897 6.11392 0 7.46561 6.11921 0
 6.40897 6.11392 0 6.97963 5.21562 0 7.46561 6.11921 0
 6.16432 3.47792 0 6.97938 3.65889 0 6.5243 4.36083 0
 6.16432 3.47792 0 6.92479 2.79566 0 6.97938 3.65889 0
 6.5243 4.36083 0 6.97938 3.65889 0 7.49014 4.32434 0
 6.97963 5.21562 0 6.5243 4.36083 0 7.49014 4.32434 0
 7.88645 2.24054 0 6.92479 2.79566 0 6.89648 1.67939 0
 7.79314 3.3409 0 6.92479 2.79566 0 7.88645 2.24054 0
 6.97938 3.65889 0 6.92479 2.79566 0 7.79314 3.3409 0
 -10.1707 19.3993 0 -9.60215 20.2846 0 -10.714 20.3503 0
 -11.2554 19.4625 0 -10.1707 19.3993 0 -10.714 20.3503 0
 -11.2554 19.4625 0 -10.714 20.3503 0 -11.8147 20.4044 0
 -12.3277 19.5043 0 -11.2554 19.4625 0 -11.8147 20.4044 0
 -10.714 20.3503 0 -9.60215 20.2846 0 -10.163 21.2425 0
 -9.60215 20.2846 0 -9.04007 21.1788 0 -10.163 21.2425 0
 -9.60215 20.2846 0 -8.47017 20.2188 0 -9.04007 21.1788 0
 -7.90996 21.1223 0 -8.47017 20.2188 0 -7.32453 20.1718 0
 -8.47017 20.2188 0 -7.90996 21.1223 0 -9.04007 21.1788 0
 -7.32453 20.1718 0 -6.14682 20.1202 0 -6.75459 21.0678 0
 -7.90996 21.1223 0 -7.32453 20.1718 0 -6.75459 21.0678 0
 -6.14682 20.1202 0 -5.40081 20.9018 0 -6.75459 21.0678 0
 -12.3277 19.5043 0 -12.9039 20.44 0 -13.3562 19.5194 0
 -12.3277 19.5043 0 -11.8147 20.4044 0 -12.9039 20.44 0
 -13.3562 19.5194 0 -12.9039 20.44 0 -13.9792 20.4388 0
 -12.9039 20.44 0 -13.552 21.4299 0 -13.9792 20.4388 0
 6.88363 7.04644 0 7.3807 7.9689 0 6.28202 7.9918 0
 7.96937 7.0278 0 7.3807 7.9689 0 6.88363 7.04644 0
 7.96937 7.0278 0 6.88363 7.04644 0 7.46561 6.11921 0
 6.28202 7.9918 0 7.3807 7.9689 0 6.75483 8.93203 0
 7.3807 7.9689 0 7.91003 8.87763 0 6.75483 8.93203 0
 7.91003 8.87763 0 7.32456 9.82821 0 6.75483 8.93203 0
 7.32456 9.82821 0 6.14682 9.87978 0 6.75483 8.93203 0
 6.14682 9.87978 0 7.32456 9.82821 0 6.77308 10.7426 0
 8.02722 5.18955 0 6.97963 5.21562 0 7.49014 4.32434 0
 6.97963 5.21562 0 8.02722 5.18955 0 7.46561 6.11921 0
 8.53796 6.09938 0 7.96937 7.0278 0 7.46561 6.11921 0
 8.02722 5.18955 0 8.53796 6.09938 0 7.46561 6.11921 0
 6.97938 3.65889 0 7.79314 3.3409 0 7.49014 4.32434 0
 7.79314 3.3409 0 8.63084 4.13028 0 7.49014 4.32434 0
 8.63084 4.13028 0 8.02722 5.18955 0 7.49014 4.32434 0
 7.79314 3.3409 0 7.88645 2.24054 0 8.83045 2.87469 0
 8.63084 4.13028 0 7.79314 3.3409 0 8.83045 2.87469 0
 -10.714 20.3503 0 -10.163 21.2425 0 -11.2835 21.3068 0
 -11.8147 20.4044 0 -10.714 20.3503 0 -11.2835 21.3068 0
 -12.411 21.3692 0 -11.8147 20.4044 0 -11.2835 21.3068 0
 -12.9039 20.44 0 -11.8147 20.4044 0 -12.411 21.3692 0
 -10.163 21.2425 0 -10.7339 22.1991 0 -11.2835 21.3068 0
 -10.7339 22.1991 0 -10.163 21.2425 0 -9.60975 22.1292 0
 -10.163 21.2425 0 -9.04007 21.1788 0 -9.60975 22.1292 0
 -9.04007 21.1788 0 -8.49356 22.0722 0 -9.60975 22.1292 0
 -9.04007 21.1788 0 -7.90996 21.1223 0 -8.49356 22.0722 0
 -8.49356 22.0722 0 -7.90996 21.1223 0 -7.38032 22.0308 0
 -7.38032 22.0308 0 -7.90996 21.1223 0 -6.75459 21.0678 0
 -5.40081 20.9018 0 -6.281 22.0074 0 -6.75459 21.0678 0
 -6.281 22.0074 0 -7.38032 22.0308 0 -6.75459 21.0678 0
 -5.30773 22.0873 0 -5.40081 20.9018 0 -4.45646 21.6438 0
 -6.281 22.0074 0 -5.40081 20.9018 0 -5.30773 22.0873 0
 -13.552 21.4299 0 -12.9039 20.44 0 -12.411 21.3692 0
 -13.552 21.4299 0 -12.411 21.3692 0 -13.0594 22.3792 0
 8.49362 7.92781 0 7.91003 8.87763 0 7.3807 7.9689 0
 8.49362 7.92781 0 7.3807 7.9689 0 7.96937 7.0278 0
 9.06518 6.98754 0 8.49362 7.92781 0 7.96937 7.0278 0
 8.53796 6.09938 0 9.06518 6.98754 0 7.96937 7.0278 0
 7.91003 8.87763 0 8.47018 9.78122 0 7.32456 9.82821 0
 9.04007 8.82122 0 8.47018 9.78122 0 7.91003 8.87763 0
 9.04007 8.82122 0 7.91003 8.87763 0 8.49362 7.92781 0
 7.32456 9.82821 0 8.47018 9.78122 0 7.89961 10.755 0
 7.32456 9.82821 0 7.89961 10.755 0 6.77308 10.7426 0
 7.89961 10.755 0 7.27687 11.6763 0 6.77308 10.7426 0
 8.53796 6.09938 0 8.02722 5.18955 0 9.08236 5.19537 0
 9.08236 5.19537 0 8.02722 5.18955 0 8.63084 4.13028 0
 9.06518 6.98754 0 8.53796 6.09938 0 9.61397 6.06058 0
 9.61397 6.06058 0 8.53796 6.09938 0 9.08236 5.19537 0
 8.63084 4.13028 0 9.62185 3.49261 0 9.58526 4.44813 0
 9.62185 3.49261 0 8.63084 4.13028 0 8.83045 2.87469 0
 9.08236 5.19537 0 8.63084 4.13028 0 9.58526 4.44813 0
 -11.8787 22.2811 0 -12.411 21.3692 0 -11.2835 21.3068 0
 -10.7339 22.1991 0 -11.8787 22.2811 0 -11.2835 21.3068 0
 -12.411 21.3692 0 -11.8787 22.2811 0 -13.0594 22.3792 0
 -10.7339 22.1991 0 -11.3102 23.1658 0 -11.8787 22.2811 0
 -10.7339 22.1991 0 -10.1725 23.0759 0 -11.3102 23.1658 0
 -10.1725 23.0759 0 -10.7339 22.1991 0 -9.60975 22.1292 0
 -8.49356 22.0722 0 -9.06516 23.0124 0 -9.60975 22.1292 0
 -9.06516 23.0124 0 -10.1725 23.0759 0 -9.60975 22.1292 0
 -8.49356 22.0722 0 -7.38032 22.0308 0 -7.96911 22.972 0
 -9.06516 23.0124 0 -8.49356 22.0722 0 -7.96911 22.972 0
 -7.38032 22.0308 0 -6.88246 22.9525 0 -7.96911 22.972 0
 -6.281 22.0074 0 -6.88246 22.9525 0 -7.38032 22.0308 0
 -6.281 22.0074 0 -5.30773 22.0873 0 -5.80631 22.9589 0
 -6.88246 22.9525 0 -6.281 22.0074 0 -5.80631 22.9589 0
 -5.30773 22.0873 0 -4.5938 22.8817 0 -5.80631 22.9589 0
 -4.5938 22.8817 0 -5.30773 22.0873 0 -4.45646 21.6438 0
 -4.5938 22.8817 0 -4.45646 21.6438 0 -3.55474 22.1669 0
 -11.8787 22.2811 0 -12.5042 23.2853 0 -13.0594 22.3792 0
 9.04007 8.82122 0 8.49362 7.92781 0 9.60975 7.87077 0
 8.49362 7.92781 0 9.06518 6.98754 0 9.60975 7.87077 0
 9.60975 7.87077 0 9.06518 6.98754 0 10.1725 6.92411 0
 9.06518 6.98754 0 9.61397 6.06058 0 10.1725 6.92411 0
 8.47018 9.78122 0 9.05723 10.6954 0 7.89961 10.755 0
 8.47018 9.78122 0 9.04007 8.82122 0 9.60215 9.71543 0
 9.05723 10.6954 0 8.47018 9.78122 0 9.60215 9.71543 0
 9.04007 8.82122 0 10.163 8.75752 0 9.60215 9.71543 0
 10.163 8.75752 0 9.04007 8.82122 0 9.60975 7.87077 0
 9.05723 10.6954 0 8.52026 11.8149 0 7.89961 10.755 0
 7.89961 10.755 0 8.52026 11.8149 0 7.27687 11.6763 0
 7.27687 11.6763 0 8.52026 11.8149 0 7.65049 12.6612 0
 9.61397 6.06058 0 9.08236 5.19537 0 10.1123 5.16797 0
 9.08236 5.19537 0 9.58526 4.44813 0 10.1123 5.16797 0
 9.61397 6.06058 0 10.7131 5.98116 0 10.1725 6.92411 0
 10.7131 5.98116 0 9.61397 6.06058 0 10.1123 5.16797 0
 9.62185 3.49261 0 10.4705 4.25902 0 9.58526 4.44813 0
 9.58526 4.44813 0 10.4705 4.25902 0 10.1123 5.16797 0
 -11.3102 23.1658 0 -12.5042 23.2853 0 -11.8787 22.2811 0
 -12.5042 23.2853 0 -11.3102 23.1658 0 -11.8887 24.1465 0
 -11.3102 23.1658 0 -10.7131 24.0188 0 -11.8887 24.1465 0
 -10.1725 23.0759 0 -10.7131 24.0188 0 -11.3102 23.1658 0
 -10.1725 23.0759 0 -9.61396 23.9394 0 -10.7131 24.0188 0
 -9.61396 23.9394 0 -10.1725 23.0759 0 -9.06516 23.0124 0
 -8.53784 23.9005 0 -9.06516 23.0124 0 -7.96911 22.972 0
 -8.53784 23.9005 0 -9.61396 23.9394 0 -9.06516 23.0124 0
 -6.88246 22.9525 0 -7.46476 23.88 0 -7.96911 22.972 0
 -7.46476 23.88 0 -8.53784 23.9005 0 -7.96911 22.972 0
 -6.40611 23.8836 0 -6.88246 22.9525 0 -5.80631 22.9589 0
 -7.46476 23.88 0 -6.88246 22.9525 0 -6.40611 23.8836 0
 -5.34644 23.9322 0 -6.40611 23.8836 0 -5.80631 22.9589 0
 -4.5938 22.8817 0 -5.34644 23.9322 0 -5.80631 22.9589 0
 -3.41882 23.3265 0 -4.5938 22.8817 0 -3.55474 22.1669 0
 -4.28341 24.1159 0 -4.5938 22.8817 0 -3.41882 23.3265 0
 -4.28341 24.1159 0 -5.34644 23.9322 0 -4.5938 22.8817 0
 -2.58204 22.5719 0 -3.41882 23.3265 0 -3.55474 22.1669 0
 10.163 8.75752 0 9.60975 7.87077 0 10.7339 7.80088 0
 9.60975 7.87077 0 10.1725 6.92411 0 10.7339 7.80088 0
 10.7131 5.98116 0 11.3102 6.83419 0 10.1725 6.92411 0
 10.1725 6.92411 0 11.3102 6.83419 0 10.7339 7.80088 0
 9.67929 11.5384 0 9.05723 10.6954 0 10.1707 10.6007 0
 9.05723 10.6954 0 9.60215 9.71543 0 10.1707 10.6007 0
 9.05723 10.6954 0 9.67929 11.5384 0 8.52026 11.8149 0
 9.60215 9.71543 0 10.163 8.75752 0 10.714 9.64965 0
 10.1707 10.6007 0 9.60215 9.71543 0 10.714 9.64965 0
 10.163 8.75752 0 11.2835 8.69324 0 10.714 9.64965 0
 11.2835 8.69324 0 10.163 8.75752 0 10.7339 7.80088 0
 9.67929 11.5384 0 9.35713 12.3745 0 8.52026 11.8149 0
 8.52026 11.8149 0 9.35713 12.3745 0 8.68156 12.9828 0
 8.52026 11.8149 0 8.68156 12.9828 0 7.65049 12.6612 0
 8.68156 12.9828 0 7.91528 13.8388 0 7.65049 12.6612 0
 10.4705 4.25902 0 11.2128 5.03645 0 10.1123 5.16797 0
 11.2128 5.03645 0 10.7131 5.98116 0 10.1123 5.16797 0
 11.3102 6.83419 0 10.7131 5.98116 0 11.8887 5.85354 0
 10.7131 5.98116 0 11.2128 5.03645 0 11.8887 5.85354 0
 -10.7131 24.0188 0 -11.2128 24.9635 0 -11.8887 24.1465 0
 -10.7131 24.0188 0 -10.1123 24.832 0 -11.2128 24.9635 0
 -10.7131 24.0188 0 -9.61396 23.9394 0 -10.1123 24.832 0
 -10.1123 24.832 0 -9.61396 23.9394 0 -9.08233 24.8046 0
 -9.61396 23.9394 0 -8.53784 23.9005 0 -9.08233 24.8046 0
 -8.53784 23.9005 0 -7.46476 23.88 0 -8.02684 24.8101 0
 -8.53784 23.9005 0 -8.02684 24.8101 0 -9.08233 24.8046 0
 -6.97765 24.7827 0 -7.46476 23.88 0 -6.40611 23.8836 0
 -7.46476 23.88 0 -6.97765 24.7827 0 -8.02684 24.8101 0
 -5.34644 23.9322 0 -5.96818 24.8087 0 -6.40611 23.8836 0
 -5.96818 24.8087 0 -6.97765 24.7827 0 -6.40611 23.8836 0
 -5.34644 23.9322 0 -4.28341 24.1159 0 -4.99229 24.8978 0
 -5.96818 24.8087 0 -5.34644 23.9322 0 -4.99229 24.8978 0
 -4.28341 24.1159 0 -3.41882 23.3265 0 -3.19313 24.6427 0
 -3.41882 23.3265 0 -2.32519 23.6527 0 -3.19313 24.6427 0
 -2.58204 22.5719 0 -2.32519 23.6527 0 -3.41882 23.3265 0
 -4.28341 24.1159 0 -3.19313 24.6427 0 -4.14111 25.0429 0
 -4.99229 24.8978 0 -4.28341 24.1159 0 -4.14111 25.0429 0
 -2.32519 23.6527 0 -2.58204 22.5719 0 -1.57729 22.843 0
 11.8787 7.71891 0 11.2835 8.69324 0 10.7339 7.80088 0
 11.3102 6.83419 0 11.8787 7.71891 0 10.7339 7.80088 0
 11.8787 7.71891 0 11.3102 6.83419 0 12.5042 6.71474 0
 12.5042 6.71474 0 11.3102 6.83419 0 11.8887 5.85354 0
 9.67929 11.5384 0 10.2268 12.3521 0 9.35713 12.3745 0
 10.2268 12.3521 0 9.67929 11.5384 0 10.7224 11.4657 0
 9.67929 11.5384 0 10.1707 10.6007 0 10.7224 11.4657 0
 10.1707 10.6007 0 10.714 9.64965 0 11.2554 10.5375 0
 10.7224 11.4657 0 10.1707 10.6007 0 11.2554 10.5375 0
 11.2835 8.69324 0 11.8147 9.59564 0 10.714 9.64965 0
 10.714 9.64965 0 11.8147 9.59564 0 11.2554 10.5375 0
 11.2835 8.69324 0 12.411 8.63076 0 11.8147 9.59564 0
 12.411 8.63076 0 11.2835 8.69324 0 11.8787 7.71891 0
 9.35713 12.3745 0 10.2268 12.3521 0 9.67885 13.1708 0
 9.35713 12.3745 0 9.67885 13.1708 0 8.68156 12.9828 0
 9.00214 14.0035 0 7.91528 13.8388 0 8.68156 12.9828 0
 9.67885 13.1708 0 9.00214 14.0035 0 8.68156 12.9828 0
 7.91528 13.8388 0 9.00214 14.0035 0 8 15 0
 -11.2128 24.9635 0 -10.1123 24.832 0 -10.4705 25.741 0
 -10.1123 24.832 0 -9.58525 25.5519 0 -10.4705 25.741 0
 -9.58525 25.5519 0 -10.1123 24.832 0 -9.08233 24.8046 0
 -8.02684 24.8101 0 -8.63076 25.8696 0 -9.08233 24.8046 0
 -8.63076 25.8696 0 -9.58525 25.5519 0 -9.08233 24.8046 0
 -7.48921 25.6748 0 -8.63076 25.8696 0 -8.02684 24.8101 0
 -6.97765 24.7827 0 -7.48921 25.6748 0 -8.02684 24.8101 0
 -6.97765 24.7827 0 -5.96818 24.8087 0 -6.52118 25.637 0
 -7.48921 25.6748 0 -6.97765 24.7827 0 -6.52118 25.637 0
 -5.96818 24.8087 0 -5.56761 25.7112 0 -6.52118 25.637 0
 -5.56761 25.7112 0 -5.96818 24.8087 0 -4.99229 24.8978 0
 -4.60869 25.7883 0 -4.99229 24.8978 0 -4.14111 25.0429 0
 -4.60869 25.7883 0 -5.56761 25.7112 0 -4.99229 24.8978 0
 -1.95911 24.7555 0 -2.58145 25.7552 0 -3.19313 24.6427 0
 -3.19313 24.6427 0 -3.62776 25.7849 0 -4.14111 25.0429 0
 -2.58145 25.7552 0 -3.62776 25.7849 0 -3.19313 24.6427 0
 -2.32519 23.6527 0 -1.95911 24.7555 0 -3.19313 24.6427 0
 -2.32519 23.6527 0 -1.25984 23.839 0 -1.95911 24.7555 0
 -1.25984 23.839 0 -2.32519 23.6527 0 -1.57729 22.843 0
 -3.62776 25.7849 0 -4.60869 25.7883 0 -4.14111 25.0429 0
 -1.25984 23.839 0 -1.57729 22.843 0 -0.526293 22.9827 0
 12.411 8.63076 0 11.8787 7.71891 0 13.0594 7.62078 0
 11.8787 7.71891 0 12.5042 6.71474 0 13.0594 7.62078 0
 10.2268 12.3521 0 10.6858 13.2152 0 9.67885 13.1708 0
 10.6858 13.2152 0 10.2268 12.3521 0 11.2392 12.3383 0
 11.2392 12.3383 0 10.2268 12.3521 0 10.7224 11.4657 0
 11.7841 11.4234 0 11.2392 12.3383 0 10.7224 11.4657 0
 11.7841 11.4234 0 10.7224 11.4657 0 11.2554 10.5375 0
 12.3277 10.4957 0 11.7841 11.4234 0 11.2554 10.5375 0
 11.8147 9.59564 0 12.3277 10.4957 0 11.2554 10.5375 0
 11.8147 9.59564 0 12.411 8.63076 0 12.9039 9.55997 0
 12.3277 10.4957 0 11.8147 9.59564 0 12.9039 9.55997 0
 12.411 8.63076 0 13.0594 7.62078 0 13.552 8.57006 0
 12.9039 9.55997 0 12.411 8.63076 0 13.552 8.57006 0
 9.67885 13.1708 0 10.6858 13.2152 0 10.1062 14.0811 0
 9.00214 14.0035 0 9.67885 13.1708 0 10.1062 14.0811 0
 8 15 0 9.00214 14.0035 0 9.49647 15 0
 9.49647 15 0 9.00214 14.0035 0 10.1062 14.0811 0
 9.00214 15.9965 0 8 15 0 9.49647 15 0
 8 15 0 9.00214 15.9965 0 7.91528 16.1612 0
 -9.58525 25.5519 0 -9.62185 26.5074 0 -10.4705 25.741 0
 -9.58525 25.5519 0 -8.63076 25.8696 0 -9.62185 26.5074 0
 -8.63076 25.8696 0 -8.83045 27.1253 0 -9.62185 26.5074 0
 -8.63076 25.8696 0 -7.79264 26.6589 0 -8.83045 27.1253 0
 -7.48921 25.6748 0 -7.79264 26.6589 0 -8.63076 25.8696 0
 -6.97762 26.3402 0 -7.48921 25.6748 0 -6.52118 25.637 0
 -6.97762 26.3402 0 -7.79264 26.6589 0 -7.48921 25.6748 0
 -6.16032 26.5203 0 -6.97762 26.3402 0 -6.52118 25.637 0
 -5.56761 25.7112 0 -6.16032 26.5203 0 -6.52118 25.637 0
 -5.16723 26.6306 0 -6.16032 26.5203 0 -5.56761 25.7112 0
 -5.16723 26.6306 0 -5.56761 25.7112 0 -4.60869 25.7883 0
 -4.15794 26.6786 0 -5.16723 26.6306 0 -4.60869 25.7883 0
 -4.15794 26.6786 0 -4.60869 25.7883 0 -3.62776 25.7849 0
 -1.95911 24.7555 0 -1.25984 23.839 0 -0.898132 24.8552 0
 -1.50453 25.8047 0 -1.95911 24.7555 0 -0.898132 24.8552 0
 -1.95911 24.7555 0 -1.50453 25.8047 0 -2.58145 25.7552 0
 -3.62776 25.7849 0 -2.58145 25.7552 0 -3.14157 26.7235 0
 -2.58145 25.7552 0 -2.09468 26.776 0 -3.14157 26.7235 0
 -1.50453 25.8047 0 -2.09468 26.776 0 -2.58145 25.7552 0
 -4.15794 26.6786 0 -3.62776 25.7849 0 -3.14157 26.7235 0
 -1.25984 23.839 0 -0.284716 23.9696 0 -0.898132 24.8552 0
 -0.284716 23.9696 0 -1.25984 23.839 0 -0.526293 22.9827 0
 -0.284716 23.9696 0 -0.526293 22.9827 0 0.526293 22.9827 0
 10.6858 13.2152 0 11.2392 12.3383 0 11.7325 13.2433 0
 11.1658 14.1146 0 10.6858 13.2152 0 11.7325 13.2433 0
 10.6858 13.2152 0 11.1658 14.1146 0 10.1062 14.0811 0
 11.2392 12.3383 0 11.7841 11.4234 0 12.3215 12.3345 0
 11.7325 13.2433 0 11.2392 12.3383 0 12.3215 12.3345 0
 11.7841 11.4234 0 12.8426 11.3859 0 12.3215 12.3345 0
 12.3277 10.4957 0 12.8426 11.3859 0 11.7841 11.4234 0
 12.8426 11.3859 0 12.3277 10.4957 0 13.3562 10.4806 0
 13.3562 10.4806 0 12.3277 10.4957 0 12.9039 9.55997 0
 13.9792 9.56117 0 12.9039 9.55997 0 13.552 8.57006 0
 13.3562 10.4806 0 12.9039 9.55997 0 13.9792 9.56117 0
 10.6173 15 0 9.49647 15 0 10.1062 14.0811 0
 11.1658 14.1146 0 10.6173 15 0 10.1062 14.0811 0
 10.1062 15.9189 0 9.00214 15.9965 0 9.49647 15 0
 10.1062 15.9189 0 9.49647 15 0 10.6173 15 0
 9.00214 15.9965 0 10.1062 15.9189 0 9.67885 16.8292 0
 8.68156 17.0172 0 9.00214 15.9965 0 9.67885 16.8292 0
 9.00214 15.9965 0 8.68156 17.0172 0 7.91528 16.1612 0
 8.68156 17.0172 0 7.65049 17.3388 0 7.91528 16.1612 0
 -8.83045 27.1253 0 -7.79264 26.6589 0 -7.88645 27.7595 0
 -6.97762 26.3402 0 -6.92339 27.204 0 -7.79264 26.6589 0
 -7.79264 26.6589 0 -6.92339 27.204 0 -7.88645 27.7595 0
 -6.97762 26.3402 0 -6.16032 26.5203 0 -6.92339 27.204 0
 -6.92339 27.204 0 -6.16032 26.5203 0 -5.84826 27.6042 0
 -6.16032 26.5203 0 -5.16723 26.6306 0 -5.84826 27.6042 0
 -5.16723 26.6306 0 -4.15794 26.6786 0 -4.70715 27.5405 0
 -5.84826 27.6042 0 -5.16723 26.6306 0 -4.70715 27.5405 0
 -4.15794 26.6786 0 -3.70876 27.6224 0 -4.70715 27.5405 0
 -3.70876 27.6224 0 -4.15794 26.6786 0 -3.14157 26.7235 0
 -0.284716 23.9696 0 0.0775062 24.934 0 -0.898132 24.8552 0
 0.0775062 24.934 0 -0.464135 25.8549 0 -0.898132 24.8552 0
 -0.464135 25.8549 0 -1.50453 25.8047 0 -0.898132 24.8552 0
 -2.09468 26.776 0 -1.50453 25.8047 0 -1.03483 26.8314 0
 -1.50453 25.8047 0 -0.464135 25.8549 0 -1.03483 26.8314 0
 -2.09468 26.776 0 -2.68712 27.7196 0 -3.14157 26.7235 0
 -2.68712 27.7196 0 -3.70876 27.6224 0 -3.14157 26.7235 0
 -1.6368 27.8125 0 -2.09468 26.776 0 -1.03483 26.8314 0
 -1.6368 27.8125 0 -2.68712 27.7196 0 -2.09468 26.776 0
 -0.284716 23.9696 0 0.526293 22.9827 0 0.552735 24.1615 0
 0.0775062 24.934 0 -0.284716 23.9696 0 0.552735 24.1615 0
 0.552735 24.1615 0 0.526293 22.9827 0 1.373 23.9035 0
 0.526293 22.9827 0 1.57729 22.843 0 1.373 23.9035 0
 12.8125 13.3035 0 11.7325 13.2433 0 12.3215 12.3345 0
 12.2009 14.1529 0 11.1658 14.1146 0 11.7325 13.2433 0
 12.8125 13.3035 0 12.2009 14.1529 0 11.7325 13.2433 0
 11.1658 14.1146 0 11.6671 15 0 10.6173 15 0
 11.1658 14.1146 0 12.2009 14.1529 0 11.6671 15 0
 12.8426 11.3859 0 13.5797 12.3161 0 12.3215 12.3345 0
 13.5797 12.3161 0 12.8125 13.3035 0 12.3215 12.3345 0
 12.8426 11.3859 0 13.7532 11.2972 0 13.5797 12.3161 0
 13.7532 11.2972 0 12.8426 11.3859 0 13.3562 10.4806 0
 13.7532 11.2972 0 13.3562 10.4806 0 14.3396 10.5981 0
 14.3396 10.5981 0 13.3562 10.4806 0 13.9792 9.56117 0
 11.1658 15.8854 0 10.1062 15.9189 0 10.6173 15 0
 11.6671 15 0 11.1658 15.8854 0 10.6173 15 0
 11.1658 15.8854 0 10.6858 16.7848 0 10.1062 15.9189 0
 10.1062 15.9189 0 10.6858 16.7848 0 9.67885 16.8292 0
 10.6858 16.7848 0 10.2268 17.6479 0 9.67885 16.8292 0
 10.2268 17.6479 0 9.35713 17.6255 0 9.67885 16.8292 0
 9.35713 17.6255 0 8.68156 17.0172 0 9.67885 16.8292 0
 8.52026 18.1852 0 8.68156 17.0172 0 9.35713 17.6255 0
 8.68156 17.0172 0 8.52026 18.1852 0 7.65049 17.3388 0
 7.65049 17.3388 0 8.52026 18.1852 0 7.27687 18.3237 0
 -6.92339 27.204 0 -6.89648 28.3206 0 -7.88645 27.7595 0
 -6.92339 27.204 0 -5.84826 27.6042 0 -6.89648 28.3206 0
 -5.84826 27.6042 0 -5.14811 28.3057 0 -5.98196 28.7556 0
 -6.89648 28.3206 0 -5.84826 27.6042 0 -5.98196 28.7556 0
 -5.84826 27.6042 0 -4.70715 27.5405 0 -5.14811 28.3057 0
 -5.14811 28.3057 0 -4.70715 27.5405 0 -4.27718 28.455 0
 -4.70715 27.5405 0 -3.70876 27.6224 0 -4.27718 28.455 0
 -4.27718 28.455 0 -3.70876 27.6224 0 -3.28878 28.6227 0
 -3.70876 27.6224 0 -2.68712 27.7196 0 -3.28878 28.6227 0
 0.552448 25.8666 0 0.0775062 24.934 0 1.03072 24.9136 0
 1.03072 24.9136 0 0.0775062 24.934 0 0.552735 24.1615 0
 -0.464135 25.8549 0 0.0775062 24.934 0 0.552448 25.8666 0
 0.0265845 26.8586 0 -0.464135 25.8549 0 0.552448 25.8666 0
 -0.464135 25.8549 0 0.0265845 26.8586 0 -1.03483 26.8314 0
 -0.545542 27.8877 0 -1.6368 27.8125 0 -1.03483 26.8314 0
 0.0265845 26.8586 0 -0.545542 27.8877 0 -1.03483 26.8314 0
 -2.68712 27.7196 0 -2.26656 28.771 0 -3.28878 28.6227 0
 -1.6368 27.8125 0 -2.26656 28.771 0 -2.68712 27.7196 0
 -1.21044 28.8968 0 -2.26656 28.771 0 -1.6368 27.8125 0
 -0.545542 27.8877 0 -1.21044 28.8968 0 -1.6368 27.8125 0
 1.03072 24.9136 0 0.552735 24.1615 0 1.373 23.9035 0
 2.03167 24.7872 0 1.03072 24.9136 0 1.373 23.9035 0
 2.36626 23.6702 0 2.03167 24.7872 0 1.373 23.9035 0
 1.57729 22.843 0 2.36626 23.6702 0 1.373 23.9035 0
 2.36626 23.6702 0 1.57729 22.843 0 2.58204 22.5719 0
 12.8125 13.3035 0 13.5797 12.3161 0 13.9015 13.4896 0
 13.1805 14.2404 0 12.8125 13.3035 0 13.9015 13.4896 0
 12.2009 14.1529 0 12.8125 13.3035 0 13.1805 14.2404 0
 12.2009 14.1529 0 13.1805 14.2404 0 12.6428 15 0
 11.6671 15 0 12.2009 14.1529 0 12.6428 15 0
 12.2009 15.8471 0 11.1658 15.8854 0 11.6671 15 0
 12.2009 15.8471 0 11.6671 15 0 12.6428 15 0
 13.5797 12.3161 0 13.7532 11.2972 0 14.6364 11.7173 0
 14.8247 12.7135 0 13.5797 12.3161 0 14.6364 11.7173 0
 13.9015 13.4896 0 13.5797 12.3161 0 14.8247 12.7135 0
 13.7532 11.2972 0 14.3396 10.5981 0 14.6364 11.7173 0
 10.6858 16.7848 0 11.1658 15.8854 0 11.7325 16.7567 0
 11.7325 16.7567 0 11.1658 15.8854 0 12.2009 15.8471 0
 10.6858 16.7848 0 11.7325 16.7567 0 11.2392 17.6617 0
 10.6858 16.7848 0 11.2392 17.6617 0 10.2268 17.6479 0
 9.35713 17.6255 0 10.2268 17.6479 0 9.67929 18.4616 0
 10.2268 17.6479 0 10.7224 18.5343 0 9.67929 18.4616 0
 11.2392 17.6617 0 10.7224 18.5343 0 10.2268 17.6479 0
 8.52026 18.1852 0 9.35713 17.6255 0 9.67929 18.4616 0
 8.52026 18.1852 0 9.05723 19.3046 0 7.89961 19.245 0
 8.52026 18.1852 0 7.89961 19.245 0 7.27687 18.3237 0
 9.05723 19.3046 0 8.52026 18.1852 0 9.67929 18.4616 0
 7.89961 19.245 0 6.77308 19.2574 0 7.27687 18.3237 0
 -5.14811 28.3057 0 -4.92692 29.1678 0 -5.98196 28.7556 0
 -5.14811 28.3057 0 -4.27718 28.455 0 -4.92692 29.1678 0
 -3.90279 29.4834 0 -4.27718 28.455 0 -3.28878 28.6227 0
 -4.27718 28.455 0 -3.90279 29.4834 0 -4.92692 29.1678 0
 -2.89141 29.7187 0 -3.90279 29.4834 0 -3.28878 28.6227 0
 -2.26656 28.771 0 -2.89141 29.7187 0 -3.28878 28.6227 0
 1.57142 25.8251 0 0.552448 25.8666 0 1.03072 24.9136 0
 1.08286 26.8371 0 0.0265845 26.8586 0 0.552448 25.8666 0
 1.57142 25.8251 0 1.08286 26.8371 0 0.552448 25.8666 0
 2.03167 24.7872 0 1.57142 25.8251 0 1.03072 24.9136 0
 -0.545542 27.8877 0 0.0265845 26.8586 0 0.575992 27.8886 0
 0.0265845 26.8586 0 1.08286 26.8371 0 0.575992 27.8886 0
 0.00489492 29.0545 0 -0.545542 27.8877 0 0.575992 27.8886 0
 -0.545542 27.8877 0 0.00489492 29.0545 0 -1.21044 28.8968 0
 -2.26656 28.771 0 -1.21044 28.8968 0 -1.8908 29.8804 0
 -2.89141 29.7187 0 -2.26656 28.771 0 -1.8908 29.8804 0
 -1.21044 28.8968 0 -0.917934 29.9719 0 -1.8908 29.8804 0
 0.00489492 29.0545 0 -0.917934 29.9719 0 -1.21044 28.8968 0
 2.03167 24.7872 0 2.36626 23.6702 0 3.21983 24.6551 0
 2.61949 25.7686 0 1.57142 25.8251 0 2.03167 24.7872 0
 2.61949 25.7686 0 2.03167 24.7872 0 3.21983 24.6551 0
 2.36626 23.6702 0 3.43273 23.3309 0 3.21983 24.6551 0
 3.43273 23.3309 0 2.36626 23.6702 0 2.58204 22.5719 0
 3.55474 22.1669 0 3.43273 23.3309 0 2.58204 22.5719 0
 13.9015 13.4896 0 14.8247 12.7135 0 14.9529 13.8125 0
 14.0989 14.5079 0 13.9015 13.4896 0 14.9529 13.8125 0
 14.0989 14.5079 0 13.1805 14.2404 0 13.9015 13.4896 0
 13.1805 14.2404 0 13.439 15 0 12.6428 15 0
 13.1805 14.2404 0 14.0989 14.5079 0 13.439 15 0
 13.439 15 0 13.1805 15.7596 0 12.6428 15 0
 13.1805 15.7596 0 12.2009 15.8471 0 12.6428 15 0
 11.7325 16.7567 0 12.2009 15.8471 0 12.8125 16.6965 0
 12.8125 16.6965 0 12.2009 15.8471 0 13.1805 15.7596 0
 12.3215 17.6655 0 11.7325 16.7567 0 12.8125 16.6965 0
 11.7325 16.7567 0 12.3215 17.6655 0 11.2392 17.6617 0
 11.7841 18.5766 0 10.7224 18.5343 0 11.2392 17.6617 0
 12.3215 17.6655 0 11.7841 18.5766 0 11.2392 17.6617 0
 10.1707 19.3993 0 9.05723 19.3046 0 9.67929 18.4616 0
 10.7224 18.5343 0 10.1707 19.3993 0 9.67929 18.4616 0
 10.1707 19.3993 0 10.7224 18.5343 0 11.2554 19.4625 0
 10.7224 18.5343 0 11.7841 18.5766 0 11.2554 19.4625 0
 9.05723 19.3046 0 10.1707 19.3993 0 9.60215 20.2846 0
 9.05723 19.3046 0 8.47018 20.2188 0 7.89961 19.245 0
 8.47018 20.2188 0 9.05723 19.3046 0 9.60215 20.2846 0
 7.89961 19.245 0 8.47018 20.2188 0 7.32456 20.1718 0
 6.77308 19.2574 0 7.89961 19.245 0 7.32456 20.1718 0
 6.14682 20.1202 0 6.77308 19.2574 0 7.32456 20.1718 0
 2.61949 25.7686 0 2.13024 26.7831 0 1.57142 25.8251 0
 2.13024 26.7831 0 1.08286 26.8371 0 1.57142 25.8251 0
 1.08286 26.8371 0 1.66321 27.8155 0 0.575992 27.8886 0
 1.66321 27.8155 0 1.08286 26.8371 0 2.13024 26.7831 0
 1.66321 27.8155 0 1.22388 28.8979 0 0.575992 27.8886 0
 1.22388 28.8979 0 0.00489492 29.0545 0 0.575992 27.8886 0
 -0.917934 29.9719 0 0.00489492 29.0545 0 -3.51229e-12 30 0
 0.00489492 29.0545 0 0.917934 29.9719 0 -3.51229e-12 30 0
 0.917934 29.9719 0 0.00489492 29.0545 0 1.22388 28.8979 0
 3.43273 23.3309 0 4.29491 24.1233 0 3.21983 24.6551 0
 4.29491 24.1233 0 4.1564 25.0499 0 3.21983 24.6551 0
 3.21983 24.6551 0 4.1564 25.0499 0 3.64857 25.7922 0
 2.61949 25.7686 0 3.21983 24.6551 0 3.64857 25.7922 0
 3.16455 26.7294 0 2.61949 25.7686 0 3.64857 25.7922 0
 2.61949 25.7686 0 3.16455 26.7294 0 2.13024 26.7831 0
 4.59781 22.8844 0 3.43273 23.3309 0 3.55474 22.1669 0
 4.29491 24.1233 0 3.43273 23.3309 0 4.59781 22.8844 0
 4.59781 22.8844 0 3.55474 22.1669 0 4.45646 21.6438 0
 15 15 0 14.0989 14.5079 0 14.9529 13.8125 0
 14.0989 14.5079 0 14.0989 15.4921 0 13.439 15 0
 14.0989 14.5079 0 15 15 0 14.0989 15.4921 0
 13.439 15 0 14.0989 15.4921 0 13.1805 15.7596 0
 13.9015 16.5104 0 12.8125 16.6965 0 13.1805 15.7596 0
 14.0989 15.4921 0 13.9015 16.5104 0 13.1805 15.7596 0
 12.8125 16.6965 0 13.9015 16.5104 0 13.5797 17.6839 0
 12.3215 17.6655 0 12.8125 16.6965 0 13.5797 17.6839 0
 12.8426 18.6141 0 12.3215 17.6655 0 13.5797 17.6839 0
 11.7841 18.5766 0 12.3215 17.6655 0 12.8426 18.6141 0
 11.7841 18.5766 0 12.3277 19.5043 0 11.2554 19.4625 0
 11.7841 18.5766 0 12.8426 18.6141 0 12.3277 19.5043 0
 10.1707 19.3993 0 11.2554 19.4625 0 10.714 20.3503 0
 9.60215 20.2846 0 10.1707 19.3993 0 10.714 20.3503 0
 12.3277 19.5043 0 11.8147 20.4044 0 11.2554 19.4625 0
 11.2554 19.4625 0 11.8147 20.4044 0 10.714 20.3503 0
 10.163 21.2425 0 9.60215 20.2846 0 10.714 20.3503 0
 9.60215 20.2846 0 10.163 21.2425 0 9.04007 21.1788 0
 8.47018 20.2188 0 9.60215 20.2846 0 9.04007 21.1788 0
 8.47018 20.2188 0 7.91003 21.1224 0 7.32456 20.1718 0
 7.91003 21.1224 0 8.47018 20.2188 0 9.04007 21.1788 0
 7.91003 21.1224 0 6.75483 21.068 0 7.32456 20.1718 0
 6.75483 21.068 0 6.14682 20.1202 0 7.32456 20.1718 0
 5.40081 20.9018 0 6.14682 20.1202 0 6.75483 21.068 0
 2.70718 27.7234 0 1.66321 27.8155 0 2.13024 26.7831 0
 3.16455 26.7294 0 2.70718 27.7234 0 2.13024 26.7831 0
 1.22388 28.8979 0 1.66321 27.8155 0 2.27856 28.7729 0
 1.66321 27.8155 0 2.70718 27.7234 0 2.27856 28.7729 0
 1.22388 28.8979 0 2.27856 28.7729 0 1.8908 29.8804 0
 0.917934 29.9719 0 1.22388 28.8979 0 1.8908 29.8804 0
 4.29491 24.1233 0 4.59781 22.8844 0 5.35242 23.9367 0
 5.00214 24.9032 0 4.29491 24.1233 0 5.35242 23.9367 0
 5.00214 24.9032 0 4.1564 25.0499 0 4.29491 24.1233 0
 4.1564 25.0499 0 4.62126 25.7935 0 3.64857 25.7922 0
 4.1564 25.0499 0 5.00214 24.9032 0 4.62126 25.7935 0
 4.62126 25.7935 0 4.17224 26.6836 0 3.64857 25.7922 0
 4.17224 26.6836 0 3.16455 26.7294 0 3.64857 25.7922 0
 3.72236 27.6261 0 3.16455 26.7294 0 4.17224 26.6836 0
 2.70718 27.7234 0 3.16455 26.7294 0 3.72236 27.6261 0
 5.30894 22.0886 0 4.59781 22.8844 0 4.45646 21.6438 0
 4.59781 22.8844 0 5.80874 22.961 0 5.35242 23.9367 0
 5.30894 22.0886 0 5.80874 22.961 0 4.59781 22.8844 0
 5.40081 20.9018 0 5.30894 22.0886 0 4.45646 21.6438 0
 14.0989 15.4921 0 15 15 0 14.9529 16.1875 0
 13.9015 16.5104 0 14.0989 15.4921 0 14.9529 16.1875 0
 13.5797 17.6839 0 13.9015 16.5104 0 14.8247 17.2865 0
 13.9015 16.5104 0 14.9529 16.1875 0 14.8247 17.2865 0
 14.6364 18.2827 0 13.5797 17.6839 0 14.8247 17.2865 0
 14.6364 18.2827 0 13.7532 18.7028 0 13.5797 17.6839 0
 13.7532 18.7028 0 12.8426 18.6141 0 13.5797 17.6839 0
 12.8426 18.6141 0 13.3562 19.5194 0 12.3277 19.5043 0
 13.7532 18.7028 0 13.3562 19.5194 0 12.8426 18.6141 0
 13.3562 19.5194 0 12.9039 20.44 0 12.3277 19.5043 0
 12.9039 20.44 0 11.8147 20.4044 0 12.3277 19.5043 0
 11.2835 21.3068 0 10.163 21.2425 0 10.714 20.3503 0
 11.8147 20.4044 0 11.2835 21.3068 0 10.714 20.3503 0
 11.2835 21.3068 0 11.8147 20.4044 0 12.411 21.3692 0
 11.8147 20.4044 0 12.9039 20.44 0 12.411 21.3692 0
 10.163 21.2425 0 11.2835 21.3068 0 10.7339 22.1991 0
 10.163 21.2425 0 9.60975 22.1292 0 9.04007 21.1788 0
 9.60975 22.1292 0 10.163 21.2425 0 10.7339 22.1991 0
 9.60975 22.1292 0 8.49362 22.0722 0 9.04007 21.1788 0
 8.49362 22.0722 0 7.91003 21.1224 0 9.04007 21.1788 0
 7.91003 21.1224 0 8.49362 22.0722 0 7.3807 22.0311 0
 6.75483 21.068 0 7.91003 21.1224 0 7.3807 22.0311 0
 6.28202 22.0082 0 6.75483 21.068 0 7.3807 22.0311 0
 6.28202 22.0082 0 5.40081 20.9018 0 6.75483 21.068 0
 5.40081 20.9018 0 6.28202 22.0082 0 5.30894 22.0886 0
 2.70718 27.7234 0 3.72236 27.6261 0 3.29799 28.6246 0
 2.27856 28.7729 0 2.70718 27.7234 0 3.29799 28.6246 0
 2.89141 29.7187 0 2.27856 28.7729 0 3.29799 28.6246 0
 2.27856 28.7729 0 2.89141 29.7187 0 1.8908 29.8804 0
 6.40897 23.8861 0 5.97337 24.8124 0 5.35242 23.9367 0
 5.80874 22.961 0 6.40897 23.8861 0 5.35242 23.9367 0
 5.97337 24.8124 0 5.00214 24.9032 0 5.35242 23.9367 0
 4.62126 25.7935 0 5.00214 24.9032 0 5.57488 25.7152 0
 5.00214 24.9032 0 5.97337 24.8124 0 5.57488 25.7152 0
 4.62126 25.7935 0 5.57488 25.7152 0 5.17575 26.6346 0
 4.17224 26.6836 0 4.62126 25.7935 0 5.17575 26.6346 0
 4.71537 27.5439 0 4.17224 26.6836 0 5.17575 26.6346 0
 4.71537 27.5439 0 3.72236 27.6261 0 4.17224 26.6836 0
 3.72236 27.6261 0 4.71537 27.5439 0 4.28326 28.4566 0
 3.72236 27.6261 0 4.28326 28.4566 0 3.29799 28.6246 0
 6.28202 22.0082 0 5.80874 22.961 0 5.30894 22.0886 0
 5.80874 22.961 0 6.88363 22.9536 0 6.40897 23.8861 0
 5.80874 22.961 0 6.28202 22.0082 0 6.88363 22.9536 0
 13.7532 18.7028 0 14.6364 18.2827 0 14.3396 19.4019 0
 13.3562 19.5194 0 13.7532 18.7028 0 14.3396 19.4019 0
 13.3562 19.5194 0 14.3396 19.4019 0 13.9792 20.4388 0
 12.9039 20.44 0 13.3562 19.5194 0 13.9792 20.4388 0
 13.552 21.4299 0 12.9039 20.44 0 13.9792 20.4388 0
 12.9039 20.44 0 13.552 21.4299 0 12.411 21.3692 0
 11.8787 22.2811 0 11.2835 21.3068 0 12.411 21.3692 0
 11.2835 21.3068 0 11.8787 22.2811 0 10.7339 22.1991 0
 13.552 21.4299 0 13.0594 22.3792 0 12.411 21.3692 0
 13.0594 22.3792 0 11.8787 22.2811 0 12.411 21.3692 0
 11.8787 22.2811 0 11.3102 23.1658 0 10.7339 22.1991 0
 10.7339 22.1991 0 11.3102 23.1658 0 10.1725 23.0759 0
 9.60975 22.1292 0 10.7339 22.1991 0 10.1725 23.0759 0
 8.49362 22.0722 0 9.60975 22.1292 0 9.06518 23.0125 0
 9.06518 23.0125 0 9.60975 22.1292 0 10.1725 23.0759 0
 8.49362 22.0722 0 9.06518 23.0125 0 7.96937 22.9722 0
 8.49362 22.0722 0 7.96937 22.9722 0 7.3807 22.0311 0
 7.96937 22.9722 0 6.88363 22.9536 0 7.3807 22.0311 0
 6.88363 22.9536 0 6.28202 22.0082 0 7.3807 22.0311 0
 2.89141 29.7187 0 3.29799 28.6246 0 3.90279 29.4834 0
 3.29799 28.6246 0 4.28326 28.4566 0 3.90279 29.4834 0
 6.40897 23.8861 0 7.46561 23.8808 0 6.97963 24.7844 0
 5.97337 24.8124 0 6.40897 23.8861 0 6.97963 24.7844 0
 6.88363 22.9536 0 7.46561 23.8808 0 6.40897 23.8861 0
 5.97337 24.8124 0 6.5243 25.6392 0 5.57488 25.7152 0
 6.5243 25.6392 0 5.97337 24.8124 0 6.97963 24.7844 0
 5.17575 26.6346 0 5.57488 25.7152 0 6.16432 26.5221 0
 5.57488 25.7152 0 6.5243 25.6392 0 6.16432 26.5221 0
 5.85151 27.6062 0 5.17575 26.6346 0 6.16432 26.5221 0
 5.85151 27.6062 0 4.71537 27.5439 0 5.17575 26.6346 0
 5.15163 28.3073 0 4.71537 27.5439 0 5.85151 27.6062 0
 4.71537 27.5439 0 5.15163 28.3073 0 4.28326 28.4566 0
 4.28326 28.4566 0 4.92692 29.1678 0 3.90279 29.4834 0
 5.15163 28.3073 0 4.92692 29.1678 0 4.28326 28.4566 0
 7.46561 23.8808 0 6.88363 22.9536 0 7.96937 22.9722 0
 12.5042 23.2853 0 11.8787 22.2811 0 13.0594 22.3792 0
 12.5042 23.2853 0 11.3102 23.1658 0 11.8787 22.2811 0
 10.7131 24.0188 0 11.3102 23.1658 0 11.8887 24.1465 0
 11.3102 23.1658 0 12.5042 23.2853 0 11.8887 24.1465 0
 11.3102 23.1658 0 10.7131 24.0188 0 10.1725 23.0759 0
 10.7131 24.0188 0 9.61397 23.9394 0 10.1725 23.0759 0
 9.61397 23.9394 0 9.06518 23.0125 0 10.1725 23.0759 0
 9.06518 23.0125 0 8.53796 23.9006 0 7.96937 22.9722 0
 8.53796 23.9006 0 9.06518 23.0125 0 9.61397 23.9394 0
 8.53796 23.9006 0 7.46561 23.8808 0 7.96937 22.9722 0
 7.46561 23.8808 0 8.02722 24.8104 0 6.97963 24.7844 0
 7.46561 23.8808 0 8.53796 23.9006 0 8.02722 24.8104 0
 8.02722 24.8104 0 7.49014 25.6757 0 6.97963 24.7844 0
 7.49014 25.6757 0 6.5243 25.6392 0 6.97963 24.7844 0
 6.5243 25.6392 0 7.49014 25.6757 0 6.97938 26.3411 0
 6.5243 25.6392 0 6.97938 26.3411 0 6.16432 26.5221 0
 6.97938 26.3411 0 6.92479 27.2043 0 6.16432 26.5221 0
 6.92479 27.2043 0 5.85151 27.6062 0 6.16432 26.5221 0
 5.85151 27.6062 0 6.89648 28.3206 0 5.98196 28.7556 0
 6.89648 28.3206 0 5.85151 27.6062 0 6.92479 27.2043 0
 5.15163 28.3073 0 5.85151 27.6062 0 5.98196 28.7556 0
 4.92692 29.1678 0 5.15163 28.3073 0 5.98196 28.7556 0
 10.7131 24.0188 0 11.8887 24.1465 0 11.2128 24.9635 0
 10.7131 24.0188 0 10.1123 24.832 0 9.61397 23.9394 0
 10.1123 24.832 0 10.7131 24.0188 0 11.2128 24.9635 0
 10.1123 24.832 0 9.08236 24.8046 0 9.61397 23.9394 0
 9.08236 24.8046 0 8.53796 23.9006 0 9.61397 23.9394 0
 8.53796 23.9006 0 9.08236 24.8046 0 8.02722 24.8104 0
 8.02722 24.8104 0 9.08236 24.8046 0 8.63084 25.8697 0
 7.49014 25.6757 0 8.02722 24.8104 0 8.63084 25.8697 0
 7.79314 26.6591 0 7.49014 25.6757 0 8.63084 25.8697 0
 7.49014 25.6757 0 7.79314 26.6591 0 6.97938 26.3411 0
 7.79314 26.6591 0 6.92479 27.2043 0 6.97938 26.3411 0
 6.92479 27.2043 0 7.79314 26.6591 0 7.88645 27.7595 0
 6.89648 28.3206 0 6.92479 27.2043 0 7.88645 27.7595 0
 10.1123 24.832 0 11.2128 24.9635 0 10.4705 25.741 0
 9.08236 24.8046 0 10.1123 24.832 0 9.58526 25.5519 0
 9.58526 25.5519 0 10.1123 24.832 0 10.4705 25.741 0
 9.08236 24.8046 0 9.58526 25.5519 0 8.63084 25.8697 0
 9.58526 25.5519 0 9.62185 26.5074 0 8.63084 25.8697 0
 9.62185 26.5074 0 8.83045 27.1253 0 8.63084 25.8697 0
 8.83045 27.1253 0 7.79314 26.6591 0 8.63084 25.8697 0
 7.79314 26.6591 0 8.83045 27.1253 0 7.88645 27.7595 0
 9.62185 26.5074 0 9.58526 25.5519 0 10.4705 25.741 0

CELLS 1014 4056
 3 0 1 2
 3 3 4 5
 3 6 7 8
 3 9 10 11
 3 12 13 14
 3 15 16 17
 3 18 19 20
 3 21 22 23
 3 24 25 26
 3 27 28 29
 3 30 31 32
 3 33 34 35
 3 36 37 38
 3 39 40 41
 3 42 43 44
 3 45 46 47
 3 48 49 50
 3 51 52 53
 3 54 55 56
 3 57 58 59
 3 60 61 62
 3 63 64 65
 3 66 67 68
 3 69 70 71
 3 72 73 74
 3 75 76 77
 3 78 79 80
 3 81 82 83
 3 84 85 86
 3 87 88 89
 3 90 91 92
 3 93 94 95
 3 96 97 98
 3 99 100 101
 3 102 103 104
 3 105 106 107
 3 108 109 110
 3 111 112 113
 3 114 115 116
 3 117 118 119
 3 120 121 122
 3 123 124 125
 3 126 127 128
 3 129 130 131
 3 132 133 134
 3 135 136 137
 3 138 139 140
 3 141 142 143
 3 144 145 146
 3 147 148 149
 3 150 151 152
 3 153 154 155
 3 156 157 158
 3 159 160 161
 3 162 163 164
 3 165 166 167
 3 168 169 170
 3 171 172 173
 3 174 175 176
 3 177 178 179
 3 180 181 182
 3 183 184 185
 3 186 187 188
 3 189 190 191
 3 192 193 194
 3 195 196 197
 3 198 199 200
 3 201 202 203
 3 204 205 206
 3 207 208 209
 3 210 211 212
 3 213 214 215
 3 216 217 218
 3 219 220 221
 3 222 223 224
 3 225 226 227
 3 228 229 230
 3 231 232 233
 3 234 235 236
 3 237 238 239
 3 240 241 242
 3 243 244 245
 3 246 247 248
 3 249 250 251
 3 252 253 254
 3 255 256 257
 3 258 259 260
 3 261 262 263
 3 264 265 266
 3 267 268 269
 3 270 271 272
 3 273 274 275
 3 276 277 278
 3 279 280 281
 3 282 283 284
 3 285 286 287
 3 288 289 290
 3 291 292 293
 3 294 295 296
 3 297 298 299
 3 300 301 302
 3 303 304 305
 3 306 307 308
 3 309 310 311
 3 312 313 314
 3 315 316 317
 3 318 319 320
 3 321 322 323
 3 324 325 326
 3 327 328 329
 3 330 331 332
 3 333 334 335
 3 336 337 338
 3 339 340 341
 3 342 343 344
 3 345 346 347
 3 348 349 350
 3 351 352 353
 3 354 355 356
 3 357 358 359
 3 360 361 362
 3 363 364 365
 3 366 367 368
 3 369 370 371
 3 372 373 374
 3 375 376 377
 3 378 379 380
 3 381 382 383
 3 384 385 386
 3 387 388 389
 3 390 391 392
 3 393 394 395
 3 396 397 398
 3 399 400 401
 3 402 403 404
 3 405 406 407
 3 408 409 410
 3 411 412 413
 3 414 415 416
 3 417 418 419
 3 420 421 422
 3 423 424 425
 3 426 427 428
 3 429 430 431
 3 432 433 434
 3 435 436 437
 3 438 439 440
 3 441 442 443
 3 444 445 446
 3 447 448 449
 3 450 451 452
 3 453 454 455
 3 456 457 458
 3 459 460 461
 3 462 463 464
 3 465 466 467
 3 468 469 470
 3 471 472 473
 3 474 475 476
 3 477 478 479
 3 480 481 482
 3 483 484 485
 3 486 487 488
 3 489 490 491
 3 492 493 494
 3 495 496 497
 3 498 499 500
 3 501 502 503
 3 504 505 506
 3 507 508 509
 3 510 511 512
 3 513 514 515
 3 516 517 518
 3 519 520 521
 3 522 523 524
 3 525 526 527
 3 528 529 530
 3 531 532 533
 3 534 535 536
 3 537 538 539
 3 540 541 542
 3 543 544 545
 3 546 547 548
 3 549 550 551
 3 552 553 554
 3 555 556 557
 3 558 559 560
 3 561 562 563
 3 564 565 566
 3 567 568 569
 3 570 571 572
 3 573 574 575
 3 576 577 578
 3 579 580 581
 3 582 583 584
 3 585 586 587
 3 588 589 590
 3 591 592 593
 3 594 595 596
 3 597 598 599
 3 600 601 602
 3 603 604 605
 3 606 607 608
 3 609 610 611
 3 612 613 614
 3 615 616 617
 3 618 619 620
 3 621 622 623
 3 624 625 626
 3 627 628 629
 3 630 631 632
 3 633 634 635
 3 636 637 638
 3 639 640 641
 3 642 643 644
 3 645 646 647
 3 648 649 650
 3 651 652 653
 3 654 655 656
 3 657 658 659
 3 660 661 662
 3 663 664 665
 3 666 667 668
 3 669 670 671
 3 672 673 674
 3 675 676 677
 3 678 679 680
 3 681 682 683
 3 684 685 686
 3 687 688 689
 3 690 691 692
 3 693 694 695
 3 696 697 698
 3 699 700 701
 3 702 703 704
 3 705 706 707
 3 708 709 710
 3 711 712 713
 3 714 715 716
 3 717 718 719
 3 720 721 722
 3 723 724 725
 3 726 727 728
 3 729 730 731
 3 732 733 734
 3 735 736 737
 3 738 739 740
 3 741 742 743
 3 744 745 746
 3 747 748 749
 3 750 751 752
 3 753 754 755
 3 756 757 758
 3 759 760 761
 3 762 763 764
 3 765 766 767
 3 768 769 770
 3 771 772 773
 3 774 775 776
 3 777 778 779
 3 780 781 782
 3 783 784 785
 3 786 787 788
 3 789 790 791
 3 792 793 794
 3 795 796 797
 3 798 799 800
 3 801 802 803
 3 804 805 806
 3 807 808 809
 3 810 811 812
 3 813 814 815
 3 816 817 818
 3 819 820 821
 3 822 823 824
 3 825 826 827
 3 828 829 830
 3 831 832 833
 3 834 835 836
 3 837 838 839
 3 840 841 842
 3 843 844 845
 3 846 847 848
 3 849 850 851
 3 852 853 854
 3 855 856 857
 3 858 859 860
 3 861 862 863
 3 864 865 866
 3 867 868 869
 3 870 871 872
 3 873 874 875
 3 876 877 878
 3 879 880 881
 3 882 883 884
 3 885 886 887
 3 888 889 890
 3 891 892 893
 3 894 895 896
 3 897 898 899
 3 900 901 902
 3 903 904 905
 3 906 907 908
 3 909 910 911
 3 912 913 914
 3 915 916 917
 3 918 919 920
 3 921 922 923
 3 924 925 926
 3 927 928 929
 3 930 931 932
 3 933 934 935
 3 936 937 938
 3 939 940 941
 3 942 943 944
 3 945 946 947
 3 948 949 950
 3 951 952 953
 3 954 955 956
 3 957 958 959
 3 960 961 962
 3 963 964 965
 3 966 967 968
 3 969 970 971
 3 972 973 974
 3 975 976 977
 3 978 979 980
 3 981 982 983
 3 984 985 986
 3 987 988 989
 3 990 991 992
 3 993 994 995
 3 996 997 998
 3 999 1000 1001
 3 1002 1003 1004
 3 1005 1006 1007
 3 1008 1009 1010
 3 1011 1012 1013
 3 1014 1015 1016
 3 1017 1018 1019
 3 1020 1021 1022
 3 1023 1024 1025
 3 1026 1027 1028
 3 1029 1030 1031
 3 1032 1033 1034
 3 1035 1036 1037
 3 1038 1039 1040
 3 1041 1042 1043
 3 1044 1045 1046
 3 1047 1048 1049
 3 1050 1051 1052
 3 1053 1054 1055
 3 1056 1057 1058
 3 1059 1060 1061
 3 1062 1063 1064
 3 1065 1066 1067
 3 1068 1069 1070
 3 1071 1072 1073
 3 1074 1075 1076
 3 1077 1078 1079
 3 1080 1081 1082
 3 1083 1084 1085
 3 1086 1087 1088
 3 1089 1090 1091
 3 1092 1093 1094
 3 1095 1096 1097
 3 1098 1099 1100
 3 1101 1102 1103
 3 1104 1105 1106
 3 1107 1108 1109
 3 1110 1111 1112
 3 1113 1114 1115
 3 1116 1117 1118
 3 1119 1120 1121
 3 1122 1123 1124
 3 1125 1126 1127
 3 1128 1129 1130
 3 1131 1132 1133
 3 1134 1135 1136
 3 1137 1138 1139
 3 1140 1141 1142
 3 1143 1144 1145
 3 1146 1147 1148
 3 1149 1150 1151
 3 1152 1153 1154
 3 1155 1156 1157
 3 1158 1159 1160
 3 1161 1162 1163
 3 1164 1165 1166
 3 1167 1168 1169
 3 1170 1171 1172
 3 1173 1174 1175
 3 1176 1177 1178
 3 1179 1180 1181
 3 1182 1183 1184
 3 1185 1186 1187
 3 1188 1189 1190
 3 1191 1192 1193
 3 1194 1195 1196
 3 1197 1198 1199
 3 1200 1201 1202
 3 1203 1204 1205
 3 1206 1207 1208
 3 1209 1210 1211
 3 1212 1213 1214
 3 1215 1216 1217
 3 1218 1219 1220
 3 1221 1222 1223
 3 1224 1225 1226
 3 1227 1228 1229
 3 1230 1231 1232
 3 1233 1234 1235
 3 1236 1237 1238
 3 1239 1240 1241
 3 1242 1243 1244
 3 1245 1246 1247
 3 1248 1249 1250
 3 1251 1252 1253
 3 1254 1255 1256
 3 1257 1258 1259
 3 1260 1261 1262
 3 1263 1264 1265
 3 1266 1267 1268
 3 1269 1270 1271
 3 1272 1273 1274
 3 1275 1276 1277
 3 1278 1279 1280
 3 1281 1282 1283
 3 1284 1285 1286
 3 1287 1288 1289
 3 1290 1291 1292
 3 1293 1294 1295
 3 1296 1297 1298
 3 1299 1300 1301
 3 1302 1303 1304
 3 1305 1306 1307
 3 1308 1309 1310
 3 1311 1312 1313
 3 1314 1315 1316
 3 1317 1318 1319
 3 1320 1321 1322
 3 1323 1324 1325
 3 1326 1327 1328
 3 1329 1330 1331
 3 1332 1333 1334
 3 1335 1336 1337
 3 1338 1339 1340
 3 1341 1342 1343
 3 1344 1345 1346
 3 1347 1348 1349
 3 1350 1351 1352
 3 1353 1354 1355
 3 1356 1357 1358
 3 1359 1360 1361
 3 1362 1363 1364
 3 1365 1366 1367
 3 1368 1369 1370
 3 1371 1372 1373
 3 1374 1375 1376
 3 1377 1378 1379
 3 1380 1381 1382
 3 1383 1384 1385
 3 1386 1387 1388
 3 1389 1390 1391
 3 1392 1393 1394
 3 1395 1396 1397
 3 1398 1399 1400
 3 1401 1402 1403
 3 1404 1405 1406
 3 1407 1408 1409
 3 1410 1411 1412
 3 1413 1414 1415
 3 1416 1417 1418
 3 1419 1420 1421
 3 1422 1423 1424
 3 1425 1426 1427
 3 1428 1429 1430
 3 1431 1432 1433
 3 1434 1435 1436
 3 1437 1438 1439
 3 1440 1441 1442
 3 1443 1444 1445
 3 1446 1447 1448
 3 1449 1450 1451
 3 1452 1453 1454
 3 1455 1456 1457
 3 1458 1459 1460
 3 1461 1462 1463
 3 1464 1465 1466
 3 1467 1468 1469
 3 1470 1471 1472
 3 1473 1474 1475
 3 1476 1477 1478
 3 1479 1480 1481
 3 1482 1483 1484
 3 1485 1486 1487
 3 1488 1489 1490
 3 1491 1492 1493
 3 1494 1495 1496
 3 1497 1498 1499
 3 1500 1501 1502
 3 1503 1504 1505
 3 1506 1507 1508
 3 1509 1510 1511
 3 1512 1513 1514
 3 1515 1516 1517
 3 1518 1519 1520
 3 1521 1522 1523
 3 1524 1525 1526
 3 1527 1528 1529
 3 1530 1531 1532
 3 1533 1534 1535
 3 1536 1537 1538
 3 1539 1540 1541
 3 1542 1543 1544
 3 1545 1546 1547
 3 1548 1549 1550
 3 1551 1552 1553
 3 1554 1555 1556
 3 1557 1558 1559
 3 1560 1561 1562
 3 1563 1564 1565
 3 1566 1567 1568
 3 1569 1570 1571
 3 1572 1573 1574
 3 1575 1576 1577
 3 1578 1579 1580
 3 1581 1582 1583
 3 1584 1585 1586
 3 1587 1588 1589
 3 1590 1591 1592
 3 1593 1594 1595
 3 1596 1597 1598
 3 1599 1600 1601
 3 1602 1603 1604
 3 1605 1606 1607
 3 1608 1609 1610
 3 1611 1612 1613
 3 1614 1615 1616
 3 1617 1618 1619
 3 1620 1621 1622
 3 1623 1624 1625
 3 1626 1627 1628
 3 1629 1630 1631
 3 1632 1633 1634
 3 1635 1636 1637
 3 1638 1639 1640
 3 1641 1642 1643
 3 1644 1645 1646
 3 1647 1648 1649
 3 1650 1651 1652
 3 1653 1654 1655
 3 1656 1657 1658
 3 1659 1660 1661
 3 1662 1663 1664
 3 1665 1666 1667
 3 1668 1669 1670
 3 1671 1672 1673
 3 1674 1675 1676
 3 1677 1678 1679
 3 1680 1681 1682
 3 1683 1684 1685
 3 1686 1687 1688
 3 1689 1690 1691
 3 1692 1693 1694
 3 1695 1696 1697
 3 1698 1699 1700
 3 1701 1702 1703
 3 1704 1705 1706
 3 1707 1708 1709
 3 1710 1711 1712
 3 1713 1714 1715
 3 1716 1717 1718
 3 1719 1720 1721
 3 1722 1723 1724
 3 1725 1726 1727
 3 1728 1729 1730
 3 1731 1732 1733
 3 1734 1735 1736
 3 1737 1738 1739
 3 1740 1741 1742
 3 1743 1744 1745
 3 1746 1747 1748
 3 1749 1750 1751
 3 1752 1753 1754
 3 1755 1756 1757
 3 1758 1759 1760
 3 1761 1762 1763
 3 1764 1765 1766
 3 1767 1768 1769
 3 1770 1771 1772
 3 1773 1774 1775
 3 1776 1777 1778
 3 1779 1780 1781
 3 1782 1783 1784
 3 1785 1786 1787
 3 1788 1789 1790
 3 1791 1792 1793
 3 1794 1795 1796
 3 1797 1798 1799
 3 1800 1801 1802
 3 1803 1804 1805
 3 1806 1807 1808
 3 1809 1810 1811
 3 1812 1813 1814
 3 1815 1816 1817
 3 1818 1819 1820
 3 1821 1822 1823
 3 1824 1825 1826
 3 1827 1828 1829
 3 1830 1831 1832
 3 1833 1834 1835
 3 1836 1837 1838
 3 1839 1840 1841
 3 1842 1843 1844
 3 1845 1846 1847
 3 1848 1849 1850
 3 1851 1852 1853
 3 1854 1855 1856
 3 1857 1858 1859
 3 1860 1861 1862
 3 1863 1864 1865
 3 1866 1867 1868
 3 1869 1870 1871
 3 1872 1873 1874
 3 1875 1876 1877
 3 1878 1879 1880
 3 1881 1882 1883
 3 1884 1885 1886
 3 1887 1888 1889
 3 1890 1891 1892
 3 1893 1894 1895
 3 1896 1897 1898
 3 1899 1900 1901
 3 1902 1903 1904
 3 1905 1906 1907
 3 1908 1909 1910
 3 1911 1912 1913
 3 1914 1915 1916
 3 1917 1918 1919
 3 1920 1921 1922
 3 1923 1924 1925
 3 1926 1927 1928
 3 1929 1930 1931
 3 1932 1933 1934
 3 1935 1936 1937
 3 1938 1939 1940
 3 1941 1942 1943
 3 1944 1945 1946
 3 1947 1948 1949
 3 1950 1951 1952
 3 1953 1954 1955
 3 1956 1957 1958
 3 1959 1960 1961
 3 1962 1963 1964
 3 1965 1966 1967
 3 1968 1969 1970
 3 1971 1972 1973
 3 1974 1975 1976
 3 1977 1978 1979
 3 1980 1981 1982
 3 1983 1984 1985
 3 1986 1987 1988
 3 1989 1990 1991
 3 1992 1993 1994
 3 1995 1996 1997
 3 1998 1999 2000
 3 2001 2002 2003
 3 2004 2005 2006
 3 2007 2008 2009
 3 2010 2011 2012
 3 2013 2014 2015
 3 2016 2017 2018
 3 2019 2020 2021
 3 2022 2023 2024
 3 2025 2026 2027
 3 2028 2029 2030
 3 2031 2032 2033
 3 2034 2035 2036
 3 2037 2038 2039
 3 2040 2041 2042
 3 2043 2044 2045
 3 2046 2047 2048
 3 2049 2050 2051
 3 2052 2053 2054
 3 2055 2056 2057
 3 2058 2059 2060
 3 2061 2062 2063
 3 2064 2065 2066
 3 2067 2068 2069
 3 2070 2071 2072
 3 2073 2074 2075
 3 2076 2077 2078
 3 2079 2080 2081
 3 2082 2083 2084
 3 2085 2086 2087
 3 2088 2089 2090
 3 2091 2092 2093
 3 2094 2095 2096
 3 2097 2098 2099
 3 2100 2101 2102
 3 2103 2104 2105
 3 2106 2107 2108
 3 2109 2110 2111
 3 2112 2113 2114
 3 2115 2116 2117
 3 2118 2119 2120
 3 2121 2122 2123
 3 2124 2125 2126
 3 2127 2128 2129
 3 2130 2131 2132
 3 2133 2134 2135
 3 2136 2137 2138
 3 2139 2140 2141
 3 2142 2143 2144
 3 2145 2146 2147
 3 2148 2149 2150
 3 2151 2152 2153
 3 2154 2155 2156
 3 2157 2158 2159
 3 2160 2161 2162
 3 2163 2164 2165
 3 2166 2167 2168
 3 2169 2170 2171
 3 2172 2173 2174
 3 2175 2176 2177
 3 2178 2179 2180
 3 2181 2182 2183
 3 2184 2185 2186
 3 2187 2188 2189
 3 2190 2191 2192
 3 2193 2194 2195
 3 2196 2197 2198
 3 2199 2200 2201
 3 2202 2203 2204
 3 2205 2206 2207
 3 2208 2209 2210
 3 2211 2212 2213
 3 2214 2215 2216
 3 2217 2218 2219
 3 2220 2221 2222
 3 2223 2224 2225
 3 2226 2227 2228
 3 2229 2230 2231
 3 2232 2233 2234
 3 2235 2236 2237
 3 2238 2239 2240
 3 2241 2242 2243
 3 2244 2245 2246
 3 2247 2248 2249
 3 2250 2251 2252
 3 2253 2254 2255
 3 2256 2257 2258
 3 2259 2260 2261
 3 2262 2263 2264
 3 2265 2266 2267
 3 2268 2269 2270
 3 2271 2272 2273
 3 2274 2275 2276
 3 2277 2278 2279
 3 2280 2281 2282
 3 2283 2284 2285
 3 2286 2287 2288
 3 2289 2290 2291
 3 2292 2293 2294
 3 2295 2296 2297
 3 2298 2299 2300
 3 2301 2302 2303
 3 2304 2305 2306
 3 2307 2308 2309
 3 2310 2311 2312
 3 2313 2314 2315
 3 2316 2317 2318
 3 2319 2320 2321
 3 2322 2323 2324
 3 2325 2326 2327
 3 2328 2329 2330
 3 2331 2332 2333
 3 2334 2335 2336
 3 2337 2338 2339
 3 2340 2341 2342
 3 2343 2344 2345
 3 2346 2347 2348
 3 2349 2350 2351
 3 2352 2353 2354
 3 2355 2356 2357
 3 2358 2359 2360
 3 2361 2362 2363
 3 2364 2365 2366
 3 2367 2368 2369
 3 2370 2371 2372
 3 2373 2374 2375
 3 2376 2377 2378
 3 2379 2380 2381
 3 2382 2383 2384
 3 2385 2386 2387
 3 2388 2389 2390
 3 2391 2392 2393
 3 2394 2395 2396
 3 2397 2398 2399
 3 2400 2401 2402
 3 2403 2404 2405
 3 2406 2407 2408
 3 2409 2410 2411
 3 2412 2413 2414
 3 2415 2416 2417
 3 2418 2419 2420
 3 2421 2422 2423
 3 2424 2425 2426
 3 2427 2428 2429
 3 2430 2431 2432
 3 2433 2434 2435
 3 2436 2437 2438
 3 2439 2440 2441
 3 2442 2443 2444
 3 2445 2446 2447
 3 2448 2449 2450
 3 2451 2452 2453
 3 2454 2455 2456
 3 2457 2458 2459
 3 2460 2461 2462
 3 2463 2464 2465
 3 2466 2467 2468
 3 2469 2470 2471
 3 2472 2473 2474
 3 2475 2476 2477
 3 2478 2479 2480
 3 2481 2482 2483
 3 2484 2485 2486
 3 2487 2488 2489
 3 2490 2491 2492
 3 2493 2494 2495
 3 2496 2497 2498
 3 2499 2500 2501
 3 2502 2503 2504
 3 2505 2506 2507
 3 2508 2509 2510
 3 2511 2512 2513
 3 2514 2515 2516
 3 2517 2518 2519
 3 2520 2521 2522
 3 2523 2524 2525
 3 2526 2527 2528
 3 2529 2530 2531
 3 2532 2533 2534
 3 2535 2536 2537
 3 2538 2539 2540
 3 2541 2542 2543
 3 2544 2545 2546
 3 2547 2548 2549
 3 2550 2551 2552
 3 2553 2554 2555
 3 2556 2557 2558
 3 2559 2560 2561
 3 2562 2563 2564
 3 2565 2566 2567
 3 2568 2569 2570
 3 2571 2572 2573
 3 2574 2575 2576
 3 2577 2578 2579
 3 2580 2581 2582
 3 2583 2584 2585
 3 2586 2587 2588
 3 2589 2590 2591
 3 2592 2593 2594
 3 2595 2596 2597
 3 2598 2599 2600
 3 2601 2602 2603
 3 2604 2605 2606
 3 2607 2608 2609
 3 2610 2611 2612
 3 2613 2614 2615
 3 2616 2617 2618
 3 2619 2620 2621
 3 2622 2623 2624
 3 2625 2626 2627
 3 2628 2629 2630
 3 2631 2632 2633
 3 2634 2635 2636
 3 2637 2638 2639
 3 2640 2641 2642
 3 2643 2644 2645
 3 2646 2647 2648
 3 2649 2650 2651
 3 2652 2653 2654
 3 2655 2656 2657
 3 2658 2659 2660
 3 2661 2662 2663
 3 2664 2665 2666
 3 2667 2668 2669
 3 2670 2671 2672
 3 2673 2674 2675
 3 2676 2677 2678
 3 2679 2680 2681
 3 2682 2683 2684
 3 2685 2686 2687
 3 2688 2689 2690
 3 2691 2692 2693
 3 2694 2695 2696
 3 2697 2698 2699
 3 2700 2701 2702
 3 2703 2704 2705
 3 2706 2707 2708
 3 2709 2710 2711
 3 2712 2713 2714
 3 2715 2716 2717
 3 2718 2719 2720
 3 2721 2722 2723
 3 2724 2725 2726
 3 2727 2728 2729
 3 2730 2731 2732
 3 2733 2734 2735
 3 2736 2737 2738
 3 2739 2740 2741
 3 2742 2743 2744
 3 2745 2746 2747
 3 2748 2749 2750
 3 2751 2752 2753
 3 2754 2755 2756
 3 2757 2758 2759
 3 2760 2761 2762
 3 2763 2764 2765
 3 2766 2767 2768
 3 2769 2770 2771
 3 2772 2773 2774
 3 2775 2776 2777
 3 2778 2779 2780
 3 2781 2782 2783
 3 2784 2785 2786
 3 2787 2788 2789
 3 2790 2791 2792
 3 2793 2794 2795
 3 2796 2797 2798
 3 2799 2800 2801
 3 2802 2803 2804
 3 2805 2806 2807
 3 2808 2809 2810
 3 2811 2812 2813
 3 2814 2815 2816
 3 2817 2818 2819
 3 2820 2821 2822
 3 2823 2824 2825
 3 2826 2827 2828
 3 2829 2830 2831
 3 2832 2833 2834
 3 2835 2836 2837
 3 2838 2839 2840
 3 2841 2842 2843
 3 2844 2845 2846
 3 2847 2848 2849
 3 2850 2851 2852
 3 2853 2854 2855
 3 2856 2857 2858
 3 2859 2860 2861
 3 2862 2863 2864
 3 2865 2866 2867
 3 2868 2869 2870
 3 2871 2872 2873
 3 2874 2875 2876
 3 2877 2878 2879
 3 2880 2881 2882
 3 2883 2884 2885
 3 2886 2887 2888
 3 2889 2890 2891
 3 2892 2893 2894
 3 2895 2896 2897
 3 2898 2899 2900
 3 2901 2902 2903
 3 2904 2905 2906
 3 2907 2908 2909
 3 2910 2911 2912
 3 2913 2914 2915
 3 2916 2917 2918
 3 2919 2920 2921
 3 2922 2923 2924
 3 2925 2926 2927
 3 2928 2929 2930
 3 2931 2932 2933
 3 2934 2935 2936
 3 2937 2938 2939
 3 2940 2941 2942
 3 2943 2944 2945
 3 2946 2947 2948
 3 2949 2950 2951
 3 2952 2953 2954
 3 2955 2956 2957
 3 2958 2959 2960
 3 2961 2962 2963
 3 2964 2965 2966
 3 2967 2968 2969
 3 2970 2971 2972
 3 2973 2974 2975
 3 2976 2977 2978
 3 2979 2980 2981
 3 2982 2983 2984
 3 2985 2986 2987
 3 2988 2989 2990
 3 2991 2992 2993
 3 2994 2995 2996
 3 2997 2998 2999
 3 3000 3001 3002
 3 3003 3004 3005
 3 3006 3007 3008
 3 3009 3010 3011
 3 3012 3013 3014
 3 3015 3016 3017
 3 3018 3019 3020
 3 3021 3022 3023
 3 3024 3025 3026
 3 3027 3028 3029
 3 3030 3031 3032
 3 3033 3034 3035
 3 3036 3037 3038
 3 3039 3040 3041

CELL_TYPES 1014
 5
 5
 5
 5
 5
 5
 5
 5
 5
 5
 5
 5
 5
 5
 5
 5
 5
 5
 5
 5
 5
 5
 5
 5
 5
 5
 5
 5
 5
 5
 5
 5
 5
 5
 5
 5
 5
 5
 5
 5
 5
 5
 5
 5
 5
 5
 5
 5
 5
 5
 5
 5
 5
 5
 5
 5
 5
 5
 5
 5
 5
 5
 5
 5
 5
 5
 5
 5
 5
 5
 5
 5
 5
 5
 5
 5
 5
 5
 5
 5
 5
 5
 5
 5
 5
 5
 5
 5
 5
 5
 5
 5
 5
 5
 5
 5
 5
 5
 5
 5
 5
 5
 5
 5
 5
 5
 5
 5
 5
 5
 5
 5
 5
 5
 5
 5
 5
 5
 5
 5
 5
 5
 5
 5
 5
 5
 5
 5
 5
 5
 5
 5
 5
 5
 5
 5
 5
 5
 5
 5
 5
 5
 5
 5
 5
 5
 5
 5
 5
 5
 5
 5
 5
 5
 5
 5
 5
 5
 5
 5
 5
 5
 5
 5
 5
 5
 5
 5
 5
 5
 5
 5
 5
 5
 5
 5
 5
 5
 5
 5
 5
 5
 5
 5
 5
 5
 5
 5
 5
 5
 5
 5
 5
 5
 5
 5
 5
 5
 5
 5
 5
 5
 5
 5
 5
 5
 5
 5
 5
 5
 5
 5
 5
 5
 5
 5
 5
 5
 5
 5
 5
 5
 5
 5
 5
 5
 5
 5
 5
 5
 5
 5
 5
 5
 5
 5
 5
 5
 5
 5
 5
 5
 5
 5
 5
 5
 5
 5
 5
 5
 5
 5
 5
 5
 5
 5
 5
 5
 5
 5
 5
 5
 5
 5
 5
 5
 5
 5
 5
 5
 5
 5
 5
 5
 5
 5
 5
 5
 5
 5
 5
 5
 5
 5
 5
 5
 5
 5
 5
 5
 5
 5
 5
 5
 5
 5
 5
 5
 5
 5
 5
 5
 5
 5
 5
 5
 5
 5
 5
 5
 5
 5
 5
 5
 5
 5
 5
 5
 5
 5
 5
 5
 5
 5
 5
 5
 5
 5
 5
 5
 5
 5
 5
 5
 5
 5
 5
 5
 5
 5
 5
 5
 5
 5
 5
 5
 5
 5
 5
 5
 5
 5
 5
 5
 5
 5
 5
 5
 5
 5
 5
 5
 5
 5
 5
 5
 5
 5
 5
 5
 5
 5
 5
 5
 5
 5
 5
 5
 5
 5
 5
 5
 5
 5
 5
 5
 5
 5
 5
 5
 5
 5
 5
 5
 5
 5
 5
 5
 5
 5
 5
 5
 5
 5
 5
 5
 5
 5
 5
 5
 5
 5
 5
 5
 5
 5
 5
 5
 5
 5
 5
 5
 5
 5
 5
 5
 5
 5
 5
 5
 5
 5
 5
 5
 5
 5
 5
 5
 5
 5
 5
 5
 5
 5
 5
 5
 5
 5
 5
 5
 5
 5
 5
 5
 5
 5
 5
 5
 5
 5
 5
 5
 5
 5
 5
 5
 5
 5
 5
 5
 5
 5
 5
 5
 5
 5
 5
 5
 5
 5
 5
 5
 5
 5
 5
 5
 5
 5
 5
 5
 5
 5
 5
 5
 5
 5
 5
 5
 5
 5
 5
 5
 5
 5
 5
 5
 5
 5
 5
 5
 5
 5
 5
 5
 5
 5
 5
 5
 5
 5
 5
 5
 5
 5
 5
 5
 5
 5
 5
 5
 5
 5
 5
 5
 5
 5
 5
 5
 5
 5
 5
 5
 5
 5
 5
 5
 5
 5
 5
 5
 5
 5
 5
 5
 5
 5
 5
 5
 5
 5
 5
 5
 5
 5
 5
 5
 5
 5
 5
 5
 5
 5
 5
 5
 5
 5
 5
 5
 5
 5
 5
 5
 5
 5
 5
 5
 5
 5
 5
 5
 5
 5
 5
 5
 5
 5
 5
 5
 5
 5
 5
 5
 5
 5
 5
 5
 5
 5
 5
 5
 5
 5
 5
 5
 5
 5
 5
 5
 5
 5
 5
 5
 5
 5
 5
 5
 5
 5
 5
 5
 5
 5
 5
 5
 5
 5
 5
 5
 5
 5
 5
 5
 5
 5
 5
 5
 5
 5
 5
 5
 5
 5
 5
 5
 5
 5
 5
 5
 5
 5
 5
 5
 5
 5
 5
 5
 5
 5
 5
 5
 5
 5
 5
 5
 5
 5
 5
 5
 5
 5
 5
 5
 5
 5
 5
 5
 5
 5
 5
 5
 5
 5
 5
 5
 5
 5
 5
 5
 5
 5
 5
 5
 5
 5
 5
 5
 5
 5
 5
 5
 5
 5
 5
 5
 5
 5
 5
 5
 5
 5
 5
 5
 5
 5
 5
 5
 5
 5
 5
 5
 5
 5
 5
 5
 5
 5
 5
 5
 5
 5
 5
 5
 5
 5
 5
 5
 5
 5
 5
 5
 5
 5
 5
 5
 5
 5
 5
 5
 5
 5
 5
 5
 5
 5
 5
 5
 5
 5
 5
 5
 5
 5
 5
 5
 5
 5
 5
 5
 5
 5
 5
 5
 5
 5
 5
 5
 5
 5
 5
 5
 5
 5
 5
 5
 5
 5
 5
 5
 5
 5
 5
 5
 5
 5
 5
 5
 5
 5
 5
 5
 5
 5
 5
 5
 5
 5
 5
 5
 5
 5
 5
 5
 5
 5
 5
 5
 5
 5
 5
 5
 5
 5
 5
 5
 5
 5
 5
 5
 5
 5
 5
 5
 5
 5
 5
 5
 5
 5
 5
 5
 5
 5
 5
 5
 5
 5
 5
 5
 5
 5
 5
 5
 5
 5
 5
 5
 5
 5
 5
 5
 5
 5
 5
 5
 5
 5
 5
 5
 5
 5
 5
 5
 5
 5
 5
 5
 5
 5
 5
 5
 5
 5
 5
 5
 5
 5
 5
 5
 5
 5
 5
 5
 5
 5
 5
 5
 5
 5
 5
 5
 5
 5
 5
 5
 5
 5
 5
 5
 5
 5
 5
 5
 5
 5
 5
 5
 5
 5
 5
 5
 5
 5
 5
 5
 5
 5
 5
 5
 5
 5
 5
 5
 5
 5
 5
 5
 5
 5
 5
 5
 5
 5
 5
 5
 5
 5
 5
 5
 5
 5
 5
 5
 5
 5
 5
 5
 5
 5
 5
 5
 5
 5
 5
 5
 5
 5
 5
 5
 5
 5
 5
 5
 5
 5
 5
 5
 5
 5
 5
 5
 5
 5
 5
 5
 5
 5
 5
 5
 5
 5
 5
 5
 5
 5
 5
 5
 5
 5
 5
 5
 5
 5
 5
 5


POINT_DATA 3042


SCALARS Von_Mises_Stresses float 1
LOOKUP_TABLE default
 21480.3 28927.1 2425.11 28858 20918.5 47004.3 23147.6 41622 48353.2 29987.7 40871.9 3712.82 70177.9 39970.6 32221.2 74400.9 30099.4 46340.9 38175.2 13400.6 2756.44 106071 113564 47741.4 109283 72586.2 53037.4 39769 103529 49431.1 43881.3 38839.4 49882 36168.4 43879.5 66087.2 40057.9 46256.8 11155.6 41181.3 74815.9 46046.4 71790.2 77254.2 38614.9 69740.4 113343 115431 77060.6 73168 112959 13620.2 43944.9 24845.8 166344 112958 107467 102546 169985 106054 172366 168501 104563 38623.8 102957 105934 115696 114194 162583 111333 169126 164062 40060.5 38683.1 105694 42162.3 37776 67413.4 45207.1 71988.4 89178.2 73565.6 48696.5 46507.3 76661.7 75124.4 44551.8 45902.6 48690.6 22884.2 75166.3 77298.2 108725 109901 75403.5 115319 155293 114072 165138 154907 110329 115573 25104.2 46920.4 33163.7 168896 229593 165436 229536 167574 245910 169003 173145 243921 173986 98202.2 166436 100352 49000.6 160945 266160 172282 169638 170375 269417 245312 217532 156447 164517 231601 216570 164001 94447.1 38704.6 82242.9 43879.4 106853 173885 104137 103269 93840.2 74916.2 70193 47662.2 99823.3 74468.1 109973 75410.6 99351.9 70131.3 48647.8 49459.2 31675.6 49043.7 69208.4 49479.6 140838 99822.3 110305 140593 109961 156029 199669 140656 156067 198404 156489 218470 48188.2 38782.4 33525.8 218743 229455 305622 230190 325942 302348 324835 231735 245012 356527 324079 245127 270829 356896 245571 305742 270824 160535 132426 298529 165193 270140 309358 422283 356543 271738 417981 284187 218516 306833 287241 198493 217649 307837 116099 363018 113868 144164 361588 127948 151629 108818 140123 110902 179136 70234.5 99598.1 87851.4 70008.9 64342.6 48937.7 64086.1 70614.6 87598.2 100800 140368 121976 100444 122140 87297.6 49516.4 49166.1 37778.4 49871.1 63689.5 49133.5 142895 198480 172692 120790 141794 173030 202377 286917 255434 170066 201316 254222 39234.5 48287 42140.3 456386 401977 306064 320668 455007 306714 401312 284969 304251 449553 321858 461280 326125 356177 459436 357095 494954 460810 499600 356042 418821 313420 522201 420239 533679 309011 365555 523750 632956 420696 620078 495827 426432 286322 408658 446108 248430 288785 437349 656626 524836 381641 419753 677925 379980 132177 431250 367440 156269 44245.6 395342 88380.6 182865 450481 102396 75198 88456 120562 102659 89017.2 76135.1 64647.1 87166.5 75831.9 58212.8 64771.4 64032 58626.5 48946.1 142476 100676 123036 143275 124343 169798 49192.5 48132 41541 58138.7 48034.5 49565.7 206498 139036 174804 209837 176563 248807 327145 261383 435761 325030 199657 259618 47535.1 43665.6 42625.1 457264 604229 396857 447595 744654 615649 606083 459190 458136 609602 729177 443127 403329 612763 459384 496607 664262 457817 653961 609352 458453 672803 493714 623439 624983 540608 779856 529642 651906 801816 865420 623281 782706 853006 666226 631833 687050 929161 784953 756688 962972 674387 446533 777843 654600 482265 224184 864218 344746 525016 826610 103199 113404 82976.1 114770 104159 138807 76925.1 100488 85118.1 64803.5 76480.8 84578.7 75095.1 65851.4 58895.2 65482 52988.4 58945.1 58175.1 53475.8 48049.6 159846 110672 144040 163060 145302 200294 53088.3 46427.1 48451.6 46563.4 43344.1 48081.4 236417 155081 209726 238814 210053 319368 44105 46156.1 43755.4 743073 601148 830654 611402 763534 809449 608054 661706 777449 663638 859039 914383 780140 670357 906364 1.01024e+06 861722 797075 929288 1.02465e+06 784711 865015 1.0594e+06 916324 1.01679e+06 1.06691e+06 856981 945815 827234 913420 1.07611e+06 1.02243e+06 943125 1.08737e+06 931823 931187 797345 630326 945058 978934 433764 516407 114668 119664 87471.2 121438 115080 155387 110446 90474.6 85356.9 66172.6 82912.1 70785.1 84817.7 89659.3 69092.1 56409.4 65928.8 70293.1 64738.7 57356.5 53613.1 53659.2 57004.8 48415.6 46561.8 52958.7 48893.1 114452 162606 174500 176648 162000 233293 46769.6 48607.4 44709.9 46461.9 44782.4 43543.9 44039.8 44417.8 42791.4 778256 811945 805112 918390 770097 920364 905622 808452 782890 1.0684e+06 1.07152e+06 910446 1.06587e+06 925834 919736 1.08918e+06 1.16253e+06 1.01364e+06 1.02061e+06 1.15573e+06 1.06968e+06 1.16933e+06 1.07656e+06 1.06744e+06 1.16586e+06 1.1734e+06 1.06232e+06 895747 554034 947756 1.10334e+06 910174 939017 1.14673e+06 1.0776e+06 969355 1.17395e+06 1.08265e+06 1.14047e+06 557400 629343 963749 116070 98014.2 88802.5 95278.6 120515 133111 119314 172364 134690 89289.3 116996 88023.5 71559.1 89159.1 88074.6 87852.7 72952.2 70647.1 59795.6 57391.1 69122 72575.6 58600.2 70500.4 48974.3 56377.8 50335.7 57338.3 59397.4 49545.1 43476.7 48980.2 50034.6 44907.4 48335.8 44166 44792.9 44135.6 42369.7 43692.8 40858.2 42684.5 773542 946331 724794 928417 991337 759391 1.08387e+06 995638 908838 1.00282e+06 1.07557e+06 1.11862e+06 1.06752e+06 1.17866e+06 1.12191e+06 1.18102e+06 1.16085e+06 1.20375e+06 1.15884e+06 1.15888e+06 1.20686e+06 1.1731e+06 1.16721e+06 1.12793e+06 1.16801e+06 1.17133e+06 1.21405e+06 674282 944010 936286 940102 1.17185e+06 948397 1.14325e+06 1.1417e+06 1.22331e+06 968496 1.14273e+06 1.14337e+06 950509 632976 631343 97825 101286 76394.9 97133.1 131652 102288 74815.1 94587.3 78072 95794.6 73525.9 89835.2 75225.4 72705.8 87438.6 59586.8 71548.1 61058.4 72996.8 74404.2 59823.6 58596.5 51349.2 50254.1 50422.7 59645.4 60607.9 44926.5 44012.1 49560.3 51006.2 44260.8 50338.3 44606.4 40608.4 44290.9 43870.6 40869.3 40791.4 40565.8 38634.5 41236.7 1.03608e+06 698685 706296 1.01567e+06 985077 1.13128e+06 1.00939e+06 760107 1.00461e+06 1.17405e+06 1.06006e+06 1.11902e+06 1.06199e+06 1.02503e+06 1.12014e+06 1.15549e+06 1.17677e+06 1.20458e+06 1.15792e+06 1.15475e+06 1.20635e+06 1.16816e+06 1.16125e+06 1.05333e+06 1.0675e+06 1.16591e+06 1.05669e+06 940631 947047 1.17118e+06 935158 944107 674964 632939 950736 631335 1.13982e+06 1.07948e+06 1.16975e+06 968910 1.07503e+06 1.14541e+06 100301 81970.3 77649.8 81837.6 59295.7 77648 60165.4 74993.4 77046.9 59879.3 61098.4 75993.5 73457.8 61457.6 60766.7 61020.1 50421.4 60841.4 51310.6 51101.6 59847.1 51038.9 44190.5 51156.2 44835.5 44671.1 50459.6 40772.8 44274.2 40778.3 44738.5 44605.3 40394.7 37863.9 40902.8 40541.5 40592.2 38093.5 38666.3 37902.5 35953 38937 932281 774988 1.00365e+06 727890 950166 775821 1.0697e+06 904389 1.01668e+06 919612 1.05675e+06 907945 899284 1.0622e+06 1.0581e+06 1.15165e+06 1.01383e+06 1.06053e+06 1.08644e+06 1.00746e+06 1.15775e+06 1.01027e+06 849343 1.05743e+06 856965 905172 1.05036e+06 557178 962913 628943 946610 554190 894578 1.10104e+06 938415 908901 927784 1.08444e+06 930506 1.07346e+06 938904 1.0163e+06 54875.6 78709.4 65383.6 78583.8 54735.1 60520.7 49369.6 60960.7 60080.6 50015.3 59432.4 47098.8 59754.9 55582.7 47053.9 49987.7 51067.8 60294.4 51042.3 49975.3 43269.6 50518.5 43761.6 44607.6 44248.3 39940.6 40597.1 43691.1 39580.7 44621.5 39845.6 37689.6 40621.9 37886 37934.7 40356.3 37853 35564.5 35996 37732.6 35410.4 38036.4 36158.2 35429.9 33155.1 903968 778841 808972 915897 908582 763490 775430 804995 811323 851199 658498 903475 895464 665335 774140 791256 854079 1.00406e+06 924964 779156 1.01825e+06 661331 845601 627373 618901 857871 777042 516955 432674 978071 824154 941859 912600 631364 793612 944035 669915 958486 753390 924906 682278 779325 54567.3 43213.1 47788.9 47878 55933.3 64264 54657 48761.7 43320.1 53211.7 48176.3 64244.3 43683 49517.3 41701.9 41487.9 49794.3 47455.5 43692.4 38949.4 47133.8 38953.1 41911.5 47006.8 39812.2 43371 38111.7 43592.4 41842.8 37912 39648.4 36051.8 37735.7 35946.5 39762.9 38171.9 36127.6 35441.4 37661.4 35379.1 33082.7 33215.6 35524.7 35987.8 32925.3 33002.4 30537.2 33308.9 657140 605280 771869 609242 809074 758183 830012 599408 742788 667998 619103 491167 659476 494057 456202 606979 649478 456833 796086 647501 526013 620491 774408 536736 493249 615796 424022 418434 628437 520188 343809 823542 522975 650099 774353 442698 859852 221719 479027 377074 673167 416486 652280 378479 521193 35996.2 39365 43150.4 47823.3 39410.6 43848.6 39832.6 35982.1 43161.5 52520.5 38665 48702.4 39662.5 39426.3 47706.4 38992.4 52404.4 44423.3 41647.8 39243.9 35735.2 38178.3 41544.2 35797 38932 33271.2 36010.3 36319.6 33286.4 38956.6 33724.5 38029.1 35973.5 36092.6 37962.5 33769.4 35972 33912.3 32945.6 30707 32908.5 30301.3 33065.2 33745.9 30085.4 28301 30780 30164.6 729288 607219 442426 603753 456598 458461 615859 744722 446955 459262 492367 355761 496918 416616 354788 325520 457767 354945 459654 321216 449025 311432 417951 518697 362804 307156 529885 415778 270672 355291 269167 419909 307608 447138 182708 88459.5 154632 392625 43873.4 130541 364586 427952 142551 112818 358694 360239 114944 306044 33597.4 30757.6 35968.6 39309.6 33273 36330.7 36004.9 30695.6 33546.2 39530.9 33283.4 39370.6 30027.9 33614.8 38703.1 33751.8 30195.7 38665 33059.9 39714.3 43861.8 36869.9 33171.2 43857.2 33502.9 31399 35774.7 31388.7 33897.2 35762 33293.4 29087.7 31581.5 30963.9 29148.8 33266.5 33719.9 31543.3 30144.4 27638.9 28398.6 29994.8 31409.4 28150.1 30292.5 28231.8 27509.5 30214.4 28460.7 27595.6 25873.1 305889 401883 455831 396827 604392 456583 320118 306580 454382 612949 403290 459591 244618 323517 355270 269884 245109 355562 244575 231577 324193 325354 229994 302204 131372 164714 296740 159993 269879 304008 244871 268478 170101 265200 169089 172039 139767 177214 111162 107888 149963 128161 38717.4 93733.6 81803.9 102234 103993 93282.2 106151 43715.8 173337 33242.7 30466 28143.9 33283.9 27997.1 30993.9 28307.9 26863.8 30687.8 30757 26743.5 29305 25342.1 30036.1 26771.9 30118.4 25156.4 28384.6 26300 30662.8 33008.9 28387.3 26498 32871.7 27815.6 33617.1 36435.3 28040.5 36388.5 30349.7 29271.9 28130.1 31406.9 26966.1 26099.9 29091.6 29144.9 26010.5 28238.9 27469.4 25792.6 25983.5 28165.7 25690.9 27521.2 28124.3 26159.7 25746.1 26004.4 25771.8 23730.9 229310 218770 305442 218508 284223 306698 285020 401198 304109 408603 286312 446353 261528 327385 436022 288797 248579 437590 229396 245460 167471 168921 243444 172890 216594 231455 164011 229421 168818 165468 165915 98151.1 173739 160470 48913.9 100304 169740 102471 106065 168429 172120 104563 71813.2 45234.6 88838.7 37782.1 42159.2 67181.9 105605 38675.6 40081.6 28004.7 25490.1 24538 27003.8 28103.5 24374.7 26751.7 24619 24034.3 26182.3 26847 23900.1 24658 25282.2 22051.8 25148.4 22652 22230.2 25542.9 26405.6 22332.8 22646.5 26750.6 27905.8 26241.9 23055 22531.5 28372.9 29954.6 23011.5 22865.4 27713.6 23467.7 29857.5 24608.8 23330.9 26099.2 23690.1 25790 26015.1 24078.1 23799.4 25683.2 23817.7 23849.4 23800.7 21809.6 23867.2 217665 198594 287267 156557 198495 218496 156528 217543 164544 286967 202460 255561 201408 170179 254351 176670 209985 248949 199804 325253 259771 319591 210197 239003 113015 166264 107463 169050 111381 164100 114141 155373 165171 114240 115770 162616 102894 38631.8 105941 39767.1 49492.8 103544 47788.4 113619 106086 36226.4 65950.7 43810.8 49925 38885.2 43783.6 24381.6 22295.2 22013.6 24100.2 24502.5 21859 21909.6 23908.3 22044.3 23830.4 24018.4 21776.7 22185.6 19951.2 22060.7 20105.3 22048.9 20097.1 22311.8 22470.4 19874.9 22310.9 19982.3 20044.9 22639.2 22804.3 19708.1 19893.9 22607.2 19667.7 19330.5 22987.3 23185 24456.4 18582.4 23439.3 18941 19556.2 22921.4 17525.7 23839.3 18498.7 18936.3 23669.8 17395.3 21947 23701.4 21912.5 21953 21900.4 20084.2 142982 172802 198576 140747 199759 156142 110037 140682 156108 115641 110405 154987 174918 139141 206641 124431 143381 169909 120878 173140 141884 200438 145407 163189 209870 155207 236609 162130 176808 233487 115503 113399 69806.2 72655 109342 53084.6 109976 115392 75469.5 77126.8 113034 73229.9 47049.9 20851.5 28900 23089.4 48409.7 41537.6 74464.1 46400.4 30136.3 20010 21928.6 21987.8 20128.8 20147.9 21864.4 21791.6 20144 20232.7 20077.3 18407.5 20156.5 19950.3 18375.1 18536.3 18215.1 20131.4 20005.8 19856.9 17911.6 20083 18099.6 18353.9 19864.5 19927.4 19539.8 17413.5 18060 19693.7 17626.1 19346 16837.2 17577.2 18919.2 16618.7 19543.5 18859.8 17419.5 15449.1 16814.4 18713.3 15605.9 17218.2 14017.8 15676.5 13539.3 17652.8 18254.9 13937.3 18177.2 14077.2 20133.7 18541.3 20229 122063 140458 100875 140929 110379 99896.4 99896.6 110049 74532.1 108803 77361.1 75229.6 144147 110763 159974 142582 123124 100755 114862 138912 104240 120649 89087.4 102739 87366.6 122228 100518 115173 121543 155513 162739 114551 174654 172518 119416 134814 77317 71857.9 38665.8 70243.4 32260.9 40024.1 76727.5 44603.9 75185.9 46098.6 74881.4 41230.7 21423.2 2393.96 28974.8 30035 3668.79 40921.2 18533 18687.8 20022.6 18678.1 18522.2 17164.3 18415.6 17085.5 17296.5 18330.6 16973.3 18537 18209.1 16807.3 17082.9 16672.3 18360.9 18034.5 16210.6 18064.3 17561.4 16355.6 16787.8 17902.7 16812.4 15548.2 17563.6 15690.9 16331.4 17417.4 14623.6 16769.8 15657.9 15673.5 16657.8 14734.5 13383 14757.7 15489.3 14071.7 13380.8 15584 10391.7 14084.6 13817.9 11839.9 13558.5 10773.9 11614.8 13520.1 13731.7 9810.49 10684 13726.9 87920.4 99672 70294.9 99426.9 75472.4 70190.9 46557.8 48746 73629 74979.2 47712.1 70251.8 90551.3 110537 85427.4 113495 103280 83045.2 114761 87545.8 119767 102476 88525.3 75260.2 85188.4 100568 76988.5 87235.4 64702.9 76197.9 64141 87668.1 70673.7 89365.2 88101.1 117097 116171 88880.6 98102.6 120618 95365.1 133235 97221.5 102386 131775 2731.19 13438 38226.1 11194.8 46306.9 40111.1 48739.1 45954.7 22919.9 43996.2 13659.2 24880.1 17072.6 15932.7 17285.6 16976.4 15812.5 16039.7 17078.3 16771.1 15720 15803.3 16665.4 15433 16780.7 16317.3 15329.7 16318.5 15672.7 14778.7 16208.6 14877.2 15421.4 14127.3 15644.1 14761.3 15561 14212.4 14874.3 13490.8 13293.1 14690.4 13315.6 14209 14661.9 13383.4 11777.7 12324.4 13359.5 13419 12239.7 11874.1 10601.8 9882.01 10352.4 8099.51 10231.1 9635.72 7711.69 10749.6 11597.8 10115.2 11367.6 12361.4 11718.4 11284 8042.11 9526.34 5907.62 48984.5 64397.4 70068.3 49092.5 49525.8 69268.3 49505 48697.2 31709.4 33196.6 46969.5 25139.9 89235.3 71621.4 88152 73015.5 87927.9 70707.4 89735.5 84888 69151.2 84649.1 76543.7 64858.4 70845.3 82981.3 66228.5 64826.3 58262.5 75895 75157.4 58945.6 65907 64086.8 48989.5 58676.3 49176.4 63744.8 49917.2 87515.4 72769 75292.3 89913.9 73591.4 95881.5 76464.8 101382 97914.4 74881.8 78143.6 94673.3 100396 77721 82047.8 16033.1 15795.8 14823.3 15717.3 14788.1 14892.5 14726.9 15794.7 15402.4 14865.9 14013.1 15405.4 14087.5 14751.7 15330.6 13736.9 14104.8 14779.2 14217.2 13639.4 14865.1 14180.3 13358.8 13110.2 13701 14143.5 13154 13310.8 12410.6 13149.8 12424.3 13304.6 12317.8 11658 12270.3 11330.1 11630.5 12448.7 12292.7 8552.22 10094.2 9955.6 10200.9 10874.8 11323.9 9950.85 10885.2 10100.5 8036.41 8416.37 10167.4 7725.82 5932.21 8694.26 5711.41 8004.86 5766.75 10842.4 11676 11286.9 6066.37 5618.55 2127.16 49208.8 49562.6 37811.4 48234.3 33559.7 38814.7 73060.3 59875.7 74470.5 61111.6 71610.4 59637.9 58650.5 72638.7 70560.5 57439.7 59846.7 69181.1 56457.1 70353.2 65984.4 53658.2 57404.9 64793.6 58995 53032.8 65537.7 58188.8 49608.6 48074.1 53520.5 58224.7 48089.7 48329.9 39267.6 42172.4 48171.7 49235.3 41573.5 73523.3 60819.7 61512.2 77117.5 75060.3 60218.8 81914.5 77719.4 59349.4 59933.7 76063.1 61152.7 54785.3 78658.2 60575.4 78783.8 54926.2 65445.2 14771.2 13788.2 14894.3 14737.5 14103.7 13854.8 14087.9 12988.4 13845.9 14000 13062.9 13068.6 13728.7 12987.3 14091.2 12870.6 13690.9 13164 12925.1 13045.3 13640.5 12361.7 12882.3 13129.6 12446.8 12367.4 13126.2 11768.8 12377 12429.7 11788.7 12408.9 11675.1 11185.8 11797 11666.4 11220 11632.2 10889.5 8549.77 6004.89 7619.14 9454.69 8412.98 7688.88 8586.87 9288.19 10051.9 10832 10020 10697.5 10061 10153.5 10669.7 9339.15 10255.1 9971.12 11216.2 10892.2 10624.3 5720.68 5030.91 7844.33 5013.19 5892.75 2118.74 5297.02 1892.57 1691.67 60660.7 59696.5 50465.3 51354.7 59899.2 51144.9 60894.5 50464.6 61074.3 59448.3 57386.7 49586.1 51392.6 58646.7 50296 56425.6 49014.4 50377.4 53704 48455.1 57053.2 48932.9 53003.1 46598.8 46463.8 53133.1 48491.4 43697.4 47574.7 42657.8 46600.2 48121 43376.1 49412.6 60135 61014.9 51111.8 50031.4 60347.9 47095.5 55633.7 59809.2 47140.5 59486.3 50058.9 54617.4 47831.2 43251.7 48806.8 54707.2 43358.9 55984.7 47922.2 64324.7 48220.9 53262.1 64304.8 13060.9 13058.9 12204.9 12924 12267.5 13032.8 12988.1 12318.6 12277.6 12870.5 12388.7 12309.2 12301.4 12387 11638.2 12353.8 11795.6 11676.1 11772.5 11215.7 11250.4 11685.7 11791.2 11245.4 11222.2 10827.4 11249.2 10867.9 11188.8 10662.2 5207.07 7531.4 7659.97 7534.31 9131.91 7620.17 8989.42 9342.87 7793.75 10196.5 9406.64 9857.97 9295.31 9009.95 9965.12 10187.4 10536 10636.4 10474.1 10848.5 10689 10291.3 10164.4 9878.95 10218.4 10499.2 10233.3 4990.49 1912.16 5812.26 7680.68 4980.15 5772.95 5772.33 2382.71 6267.7 2213.55 5654.91 6467.68 44296.6 51049.4 50380 44226.9 51082.8 51199.5 44707.4 44872.5 50502.2 51086.2 43305.9 50018.9 50561.9 44644.5 43798.3 49020 43510.4 50076.3 44046.5 44962.8 49601.4 48375.1 44941.9 44200.4 44744.1 48647.1 46806.5 44816.7 46498.6 43575.2 43786.6 46192.8 44137.2 41523 47497.4 49837.9 43719.7 41737.4 49560.5 41947 38986.5 47048.4 47175.6 38982.8 43731.4 39398.7 36027.4 43189 36013.2 39868.4 43200.1 39446 47867.6 43887.8 39699.3 47750.5 39461.8 48747.5 38701 52570.2 52454 39028.6 44466.1 12327.5 11539 12265.9 12272.4 11679.9 11618.2 11619.7 11098.4 11092.3 11603.5 11683.7 11051.1 11669.9 11253.1 11065.7 11065.9 11253.2 10764.9 11238.9 10845.3 10785.1 10773.2 10864.4 10462.5 10831.7 10494.3 10501.3 9160.21 7525.17 7812.6 7841.45 7485.69 5981.34 8995.79 7667.03 9035.82 9869.72 8991.65 9024.08 9100.62 9771.85 9878.66 10086.5 10237.3 9940.19 9775.99 10161.2 9864.06 10525.3 10228.4 10477.6 10235.1 10277.6 10480.4 10073.7 10243.6 10274.9 10097.7 10127.3 10221.7 7997.12 5819.53 6086.47 8671.76 7814.34 6353.72 7850.71 8810.87 6293.24 5808.87 8136.06 6116.1 8195.29 5941.52 9540.15 44642.6 44325.3 40639.4 40810.6 44310 40804.1 44642.2 44774.6 40426.6 44284.8 40629.2 39972.8 43727.8 44658.4 39612.5 37942.8 41878.3 43629 38142.8 43407.3 39844.3 44170 44827.2 42399.9 40887.5 43726.8 42715 40900.4 43904.7 40820.7 44451.8 44071.3 42821.8 39277.5 41683.2 35764.5 35826.4 41579.4 38209.4 38965.3 36039.8 33298.7 38990 33313.9 36351.1 39345 36362.1 33302.3 35999.8 30783.2 33626.9 33573.9 30721.2 36036 39567.5 39406 33312.6 38700.9 30222.6 33783.9 39751.2 33091.5 43904 30054.8 38739 33644.3 33202.8 36906.6 43899.5 11100.7 10594.1 11081 11063.9 10775 10627.9 10289 10764.1 10475 10788.9 10254.6 10617.7 10005.7 10271.5 10496.4 10240 10045.8 10466.2 9394.81 9013.78 7980.84 9893.36 9769.41 9129.72 9351.5 9975.5 9040.13 8544.85 9495.11 7893.5 10094.9 9847.35 10097.7 9775.28 9878.86 10163.1 10051.5 10093.1 10096.3 10148 9995.24 10085.4 10230.7 10084 9880.65 10020.7 10266.2 9836.84 10108.6 9741.66 9851.39 10012.1 9782.6 10069.5 8551.52 8154.35 10213.2 10088.1 9344.84 8712.89 10128.6 8679.47 10007.1 8208.62 10393.8 10281.3 10793.9 7848.07 9654.38 13750 10738.5 9831.15 40596.8 41266.3 38662.4 38122.3 40623.2 38694.3 37892.6 40573.6 40934 40654.1 37718.9 39877.8 40388.2 37963.5 37915.5 37765.1 36080.1 39680.3 35974.6 38203 39795 36003 38060 33751 33796 37993.3 36120.9 31413.6 35791.3 33923.9 35804.1 31423.8 33530.6 29171.9 30989.7 33294 31606.5 29110.8 33320.9 28167.4 30493.3 33271.9 31019.7 28020.6 33313.1 28331.7 30713.4 26885.2 30782.5 29328.3 26764.8 30145.3 28408.4 25177.6 30690.2 26324 33040.3 26796.2 30063 25363.4 32903.1 26522 28415.1 36471.6 33649.1 27843 30381.6 36424.7 28068 10011.3 10268.7 9396.59 10213.4 9871.22 9460.55 9953.97 10243.5 10088.8 10296.4 9893.2 10183.1 10228.8 10128.8 10099.8 10086.8 9995.37 10150.8 9763.09 10022.5 9701.41 10022.8 9763.55 9701.18 9783.37 10011.8 10071.4 10645.1 11897 9935.52 11622.5 11390.3 10163.6 10246.9 11347 10897.3 9993.07 10149.7 10907.3 10711.5 10059.8 10855.7 10099.3 10684.7 10172.6 14103.2 10440.7 13839.7 11866.4 10814.1 13576.1 13959.8 14100.3 18199.3 35979.2 37931.2 38965.3 38065.2 35437.2 37762 37881.6 36022.3 35591.4 37690.8 35468.2 36155.9 32970.6 33939 36000.2 35551.6 32950.4 36016 33772.4 33090.4 30108.3 31568.3 33746.5 30167.4 28171.8 31434.2 30315.6 29295.2 31431.8 28151.7 29114.8 26119.9 26987.6 29168.1 28260.6 26030.5 28127.1 27025.3 24394 25511.6 28028.2 24557.4 26202.4 23918.3 26868.3 26773 24052.6 24638.5 22069.1 25303.5 24677.6 25169.6 22247.6 22671.1 26429.5 25564.5 22351.6 26774.8 22667.2 27933.1 23076 26265.8 22550.3 22886.1 23490.8 27740.8 23034.2 29986.1 28400.6 24636.9 29889 23353.8 10506.8 10225 10251.2 10652.4 10542.6 10206.2 10075.6 10281.3 10246.4 10241.6 10488.7 10280 10085.5 10234.1 9881.5 9742.5 10110.4 9852.24 11639.8 13748.7 13534.5 12340.7 11801.1 13397.9 12377.3 11308.2 11742.5 11311.6 11690.7 10865.6 11353.7 12286.7 11672.9 11647.6 11231.4 10911.8 11227.6 10640.9 10914.2 10874.7 10677.8 11200.8 10482.4 10704.1 10855.7 17669.6 13559.5 18277.9 14089.2 15597.2 13396.3 17234.5 15690 14034 23866.1 17543.4 18522.4 35456.7 36184.7 33179.6 33107.9 35405.9 33240.1 30324.4 32933.5 30729.8 33027.5 33333.5 30559.9 28322.1 30187.5 30802.9 28419.8 27659.7 30017.7 27530.2 28253.5 30237.5 28145.9 25765.4 26179.8 27541.9 25710.2 28187.3 25809.3 23707.8 26119.2 23817.1 24096.4 26035 22030.1 22312.7 24401 24118.6 21875.5 24521.9 22060.9 23926.5 21925.7 24036.7 23848.1 21792.7 22203 22077.3 19965.8 22329.4 19890.2 22489.2 20112.6 22066.2 20120.1 20060.3 19998.8 22329.7 19724.3 22825.1 22658.2 22627.8 19910.1 19685 23207.9 23008.1 19347.3 18957.8 22944 19573.1 18599.4 24484.6 23462.1 23695.9 18953.9 17412.2 10502.2 10839.4 10504.6 10231.8 10532.9 10481.3 10047.2 10243 10470.4 10269.1 10022.2 9838.46 14701.2 13304.2 13504.1 15503.6 14768.2 13396.2 13369.8 12256 13433.3 11645.7 12308.9 12458.7 12333.4 13315.3 12434.6 11689.6 12419.4 11797.1 11197.8 11681.1 11805.3 11256.3 11227 11781.2 11255.2 10835.1 11233.3 10852.6 11245.2 10789.1 10871.4 10777.3 10466.7 18876.8 15462.4 17437.2 15671.9 16782.6 14634.6 15619.2 18730.4 16827.4 27616.4 28481.9 25892.4 25812 27490.1 26002.8 25791.1 26023.8 23748.5 23835.4 25702.5 23867 21825.5 23818.4 23884.9 23719.1 21963.1 21928.6 20024.4 22004.3 21944.7 21880.8 20162.4 20143.6 21969.2 20098.6 21916.4 20247.3 20158.5 21807.6 20171 18420.4 20092 19964.9 18549.3 18388.2 20021.1 20146.2 18228.1 19873.2 20098.5 17924.8 18113.1 19879.8 18367 19709.9 18073.3 17639.8 19943.7 17426.9 19557 17590.5 16850.4 19363 16631.9 18936.5 19560.2 10008 10500.1 10273.8 10478.9 10768.6 10291.2 14772.1 15654.7 14136.3 13325.9 14673.1 14217.6 16671.2 15683.9 14745 13321.4 13157.5 12420.8 13118.3 13369 14189.2 11777.3 12439.8 12384 12456.6 13134.2 12374.6 11680.8 11803.7 12361 11690.4 11251.7 11799.3 11070 11259.1 11674.8 11259.1 11070.2 10769.4 10793 10621 10257.7 11068.3 10631.1 10779.3 15559 16825.8 17576.9 18554.4 20148.2 20243.6 18701 18546.1 20037 17097.2 18428.6 17308.4 18535.2 18691.3 17176 18550.1 16984.8 18343.7 17094.5 16818.8 18222 16683.6 18047.9 18374 18077.6 16221.8 17574.9 16367 17916 16799.2 16342.6 15701.8 17430.9 15572 14883.3 14221.3 15683.6 16329.7 14788 14874.3 13647.1 14226 13708.5 13161.9 14152.6 13171.9 13698.6 12877.7 13137.7 12889.4 12368.9 12877.7 12315.4 12395.8 12307.6 11643.3 12394.1 11688.7 11608.6 11055.5 11623.2 11685 12278.6 11102.6 11624.7 11096.6 10597.8 11104.8 11085.4 17084.2 17297.5 15943.2 17089.9 15730.2 16782.6 15822.8 16987.9 16050.4 15813.6 15442.9 16676.7 15339.5 16328.6 16792.2 16219.9 15431.2 14886.7 14875.3 15415.3 14021.3 13744.7 14788.6 14112.9 12994.4 13736.5 14099.4 13648.3 13052.3 12932.2 13039.8 12273.8 12931 12324.9 12995.1 12283.7 11544.3 12333.7 12272.1 15806.1 16043.8 14832.7 15412.3 15805 14736 14797.3 15727.5 14901.9 15340.4 14760.8 14095.8 14746.6 13863.1 14112.1 13854.2 12995.6 14096.2 13075.9 13070 14008.2 13065.9 13068.2 12211.1 13796.4 14780.3 14903.8
